128
Lattice="6.803470491332055 0.0 0.0 0.0 6.803470491332055 0.0 0.0 0.0 6.803470491332055" Properties=species:S:1:pos:R:3:forces:R:3 energy=-1892.550160288788 structure_name='H_1' pbc="T T T"
H        0.31469271       2.82146302       0.88585436       0.65000093      -0.08205989      -0.76650795
H        1.51039781       5.48213289       1.63961443       0.12692000      -1.53633263      -0.79721208
H        4.40025012       4.86599436       4.78933192       0.22490994       2.23329221       0.92167925
H        6.33119303       4.60866499       0.87558832       1.16503943      -1.91437241      -1.19495166
H        4.32281561       5.87995089       3.38865531      -0.91547261      -0.06654995       0.56220799
H        2.73406623       4.12393757       2.45104424       2.47015264       1.04873295       2.89255940
H        6.13963510       3.10035743       1.89005286       1.45863900       1.18660072      -0.51444201
H        4.32030202       2.16340413       4.77923416      -1.29585209      -1.44251303      -1.50796821
H        1.11229089       4.87480410       4.04721269      -1.92858033      -0.57536176      -0.36946000
H        1.00418739       4.38697094       2.09813593      -0.63485198       0.90695197       1.60400925
H        4.50459858       3.33043628       5.08060166      -0.00614998       1.24240911       0.17802996
H        2.81793659       5.44793746       2.76914433      -1.61883938       1.24602923       1.07858862
H        6.09911705       1.29733729       4.00408474       0.03825001      -0.41534033       0.95520131
H        1.72698689       1.58235216       0.59983405       1.01858932       0.24533993       1.27847142
H        4.11536172       0.00636547       4.91908512       0.80360899       1.20137943       0.92429149
H        0.29069453       5.13917471       4.36634414       0.91495839      -0.37829020      -0.25029034
H        5.23713864       2.87829613       3.43590184      -1.26749281      -0.14115981       1.95648196
H        0.22797803       4.01719141       0.43604205      -2.33986964       1.58819181       1.36191919
H        1.53759064       3.77151663       0.37408704       1.68916937      -0.60643099      -0.41049997
H        4.39849378       5.76084685       0.31432070      -1.18885815       1.00570295      -1.73604060
H        0.20103655       2.14762724       5.63546994       0.89771142       1.98417276       0.14522010
H        0.49231476       6.01712580       5.61895167      -0.16663997       0.38885024       0.59618257
H        4.42293330       1.04311684       3.18051349       0.14408007       1.62205326      -1.19864891
H        3.49776372       3.69873254       0.20854187       1.39565208      -0.25397987       0.01846999
H        1.18458232       3.04145259       5.33390241       0.74920956       0.65180070      -0.02910002
H        3.20376342       3.05311036       3.15950621      -0.34955040       1.09522881      -3.44607191
H        0.11119337       5.94374797       0.91291066       0.69768977       1.72134931      -2.09534217
H        0.64978944       2.51322786       0.09713101      -0.82219808       0.59074211       0.15862018
H        2.11121878       1.65109123       2.51528636      -0.42470995       1.90729159      -2.00373886
H        4.33183226       1.64531579       5.63218904      -0.53196152      -1.21868810       0.00820002
H        2.43318027       4.00233899       3.93617596      -1.04431065      -1.66989123       1.20585829
H        0.56438659       3.14665885       4.58488905      -0.48785011      -0.09984010      -0.30382999
H        1.64484429       4.10075961       5.85706873      -0.56578183      -0.18442018      -0.32226018
H        3.26786319       2.17510476       4.65790493       0.44868036      -1.53379238      -0.03098001
H        0.77182618       6.48951757       4.38703021      -0.07249023       1.38605158       0.10765986
H        4.31293534       6.70106834       6.61702018      -0.57442074      -1.56720131       0.52709185
H        5.44927734       1.48127825       2.49258413       2.82960333      -0.81713814       2.95946982
H        5.03330909       1.19186010       6.53067909      -0.44897038       0.83266247       0.57135084
H        1.74746287       2.07755570       3.87806065      -1.43069109       0.12906996       0.71627886
H        2.44945300       2.06623131       0.16097572       0.08767981       0.28221009       0.35878015
H        4.41848345       5.80618146       4.92643540       0.07395988      -2.95442017       0.33790021
H        6.75051361       1.63500741       1.50418474       1.01454240      -0.09753999      -1.17178087
H        2.48954824       0.16617647       4.01666382       1.62303028       0.66252220       0.43455008
H        1.17706536       2.93466462       1.53408220       1.10150230      -0.45475999       0.78546214
H        2.20759836       5.68146655       3.35125941       1.14892889       0.32375039      -2.06971854
H        6.14037065       5.86449203       5.51349458       0.01761001       1.08534034      -1.12205057
H        0.10639320       5.44757973       1.49698264       0.18601015      -0.91267010       1.89491943
H        4.30961264       6.49946663       1.22668631      -0.49123008       1.32678248       0.47326012
H        2.68856174       5.57211102       6.60587518       1.16402128      -0.99337193      -0.80499225
H        5.81181561       0.01777083       6.29748391       0.66848202       0.10311980      -0.07216987
H        1.23335553       2.81709678       2.95180414      -0.17290009       0.63580843      -0.09574999
H        2.92535798       0.71889258       6.31318724       0.01834000      -0.60980942      -0.12508989
H        0.24423170       1.77400746       2.36356066       0.82973141       1.05090811       0.12537991
H        6.00484836       5.87080670       4.42667035      -0.04542000      -0.35777999       1.78195025
H        6.63494500       0.07363978       0.95082092      -0.25634015       0.49161009       0.33721012
H        6.63695111       3.79944608       5.49021078       0.24047026       1.58340956       0.86099090
H        6.74644847       1.14297523       2.86274414      -0.34537030      -1.29967275       0.90740962
H        5.03839501       3.65136641       4.35339517       0.80624180      -0.23589010      -1.52496321
H        5.27796520       3.20655642       5.57759382       0.77301799       0.45258021       1.16210838
H        3.26245024       3.72684772       5.39231246      -0.02304003       0.43439016       0.31912035
H        5.41582698       6.38527229       0.07619094       0.89843133       0.54100152       0.11425011
H        1.34439703       1.42485790       6.45005682      -1.09203035       0.39328026      -0.74461243
H        4.01599811       4.27696505       3.49970474       0.91656790      -1.13706068       0.34309024
H        6.29827714       2.55233353       6.14030503       0.15545001       1.77103848      -0.08608006
H        5.96056469       4.99575550       5.80268995      -1.06280204      -1.24661030       0.78608949
H        5.78730571       3.21846238       2.66430267      -1.70829839       0.50921033      -0.18606003
H        2.25937412       6.49189040       6.16110223       0.84043235       1.07380122       0.48290022
H        6.06756645       0.25528992       4.07411606       0.32241033       1.70128956      -0.05307994
H        3.68336682       1.99023034       1.71781571      -0.10995020       1.01875902      -0.44861042
H        5.48450890       5.08751695       6.52796494      -0.60669838      -1.25709012       0.53147815
H        2.73025615       1.44767602       3.06806544       2.82409089       1.54233873       0.28006990
H        1.56770189       1.82926785       5.40903552       0.69039812      -0.07451986       0.26209993
H        2.44539686       6.20134669       1.21685420      -0.90590810      -1.95831259      -1.34223996
H        3.40088671       5.09667225       6.11242798      -1.19009228       0.38759040       0.49237011
H        6.53735149       3.24399518       3.08796251       2.34306295       0.29706027       0.99588133
H        5.51843498       5.97722901       2.06352827       1.36621808      -0.80938884      -1.99435947
H        5.34882679       6.16427147       3.68624448      -0.39858033       0.49596040       0.49127019
H        4.97288499       1.63918685       2.06412465      -3.18281138       0.85130812      -2.78549346
H        3.47130591       4.73098960       3.68041348      -1.67600017       1.01606964       0.96533146
H        2.21488725       0.88691747       2.95491147      -1.53055279      -3.44821107      -0.04455004
H        6.61091559       0.21564502       2.30386417      -1.10054071      -0.76850827       0.64032843
H        0.38012072       5.19763397       2.71342090      -0.58913774      -0.19178023      -0.80666861
H        6.50312113       1.32304314       5.70664375      -0.76323237      -0.33802002      -2.13531256
H        2.09280871       2.85211350       1.56615352      -1.26292138      -1.12087814       0.10261998
H        3.75135445       2.35802017       0.99349377      -0.08151018       0.43598013       1.55340991
H        6.26462253       5.83444640       3.46032866       1.31400923      -1.06920923      -1.67590247
H        1.09445709       0.09245150       2.88364611       0.54253904      -0.26978034      -2.09919883
H        4.27922834       3.79791887       1.99056372       1.00480820      -0.34427038       1.23925179
H        2.49102041       2.31541135       5.78291354      -0.76722786      -1.05940818       0.12101983
H        4.27529073       5.08739577       1.67563870      -1.82747936      -0.99759883      -1.27233162
H        1.92701536       4.55050153       0.88981154      -0.83775840       1.96116137       0.48191034
H        5.83081889       0.87230742       1.30112514       0.05531011      -1.09814958      -0.42622022
H        3.74205310       0.87009916       0.93119321       0.12799987      -0.00076000      -0.59115863
H        1.57553212       0.43393011       4.86170432      -1.28918264      -0.66458937      -1.07150265
H        5.65786578       1.82428089       5.01682416       0.44049036       0.08039021      -2.12370145
H        5.55441903       2.33262072       0.69762601      -0.40695030      -0.33808996      -1.67889009
H        0.53846219       1.10418866       0.88755407       0.24640026      -0.28713015       0.47260037
H        1.61528868       0.66067250       6.36774012       0.45722003      -1.84819218      -0.74712183
H        1.21976573       5.95734623       6.04955114      -1.20476300      -0.45791011       0.87892178
H        5.02742623       2.21016858       5.95218887       0.88101981       0.03548001       1.52519975
H        2.60729705       5.09382580       5.03066850       0.45193023       0.05692014       0.38545998
H        3.49190626       2.65965015       3.64708378       2.30738116      -2.13862929       0.77448866
H        6.69273433       2.81765242       3.97172608       0.33602022       0.28422017       0.59019189
H        6.63016653       0.84246658       6.22031663       1.11258890      -3.08775251       2.16374898
H        1.48690076       4.88965758       6.74794445       0.07493021       0.57888932      -0.65332279
H        3.31520445       2.88777952       5.57945176      -0.36538994       1.71704014       0.40990039
H        1.45356576       0.08531660       1.88540562      -1.49780206       0.69439876       2.11371014
H        2.64499987       6.79722091       1.56758282       0.67211242       2.35367132       0.35956022
H        2.26892048       3.04193837       4.26879508      -0.69651221       1.91848104       0.20850989
H        5.16309458       5.45653394       1.31473876       2.54648873       0.47529026       1.09984137
H        5.13293676       0.44417498       4.75470150      -0.57626165      -0.19633005       0.42332001
H        4.35465620       3.58249346       0.05929484      -0.28131997       0.11573004       0.34339003
H        2.42174687       3.34869396       0.23670204      -0.54754241      -0.04956004       0.19105003
H        3.95635348       6.60288586       1.93996485      -0.10174992       0.76091837      -0.01953001
H        5.73523308       4.74725598       3.35203730       0.40997032      -0.98634253       0.09176015
H        5.43937590       2.73680842       1.38664178      -0.85255254       0.84656186      -1.28163902
H        0.37737799       4.49579095       5.88736889      -0.67576853      -1.97610977      -0.82133933
H        3.28620712       0.38937444       4.53097595      -1.27599288      -0.27214987      -0.28699028
H        2.37244343       3.92582102       1.91943278      -1.10665994      -1.04064940      -2.93458153
H        4.03038379       4.64532533       0.96792922      -0.41196036       0.86422021       0.29303032
H        4.63135293       4.23489175       2.71051096       1.26238145      -1.32152200      -1.44847285
H        4.77165846       5.98351458       2.73367728      -0.47533037      -0.00904000      -0.14213991
H        0.99500881       1.62442122       3.97419681       0.34437014      -0.21342995       0.30541996
H        1.96851661       6.28553297       4.90575092      -0.03723000       0.27930011       0.05318021
H        4.15845527       0.56830091       3.61879132      -1.05456936      -0.66116980       0.63403951
H        1.84620840       5.18324988       4.66079900       1.01154964       0.22933018       1.03722983
H        1.22505909       4.08222888       3.28853127       0.06055002      -1.09518253      -1.10098294
H        3.67950488       1.24690564       0.07487911      -0.49267041      -1.68042247       0.22110007

