2
Lattice="8.911850560536536 0.0 0.0 0.0 7.129480448429229 0.0 0.0 0.0 7.129480448429229" Properties=species:S:1:pos:R:3:initial_magmoms:R:1:OUTPUT_forces:R:3:forces:R:3 structure_name=dimer OUTPUT_energy=-1.71162767 OUTPUT_stress="0.0008064217035914946 0.0011981325748228022 0.0011981325748228022 -0.0 -0.0 0.0" energy=-406.996101019997 free_energy=-406.996101019972 pbc="T T T"
Li      -0.37542787       0.00000000       0.00000000       1.00000000      -0.00797700       0.00000000       0.00000000      -0.35206487       0.00000000       0.00000000
Li       2.15779798       0.00000000       0.00000000       0.00000000       0.00797700       0.00000000      -0.00000000       0.35206487      -0.00000000      -0.00000000
2
Lattice="9.057972442207744 0.0 0.0 0.0 7.246377953766196 0.0 0.0 0.0 7.246377953766196" Properties=species:S:1:pos:R:3:initial_magmoms:R:1:OUTPUT_forces:R:3:forces:R:3 structure_name=dimer OUTPUT_energy=-1.71162767 OUTPUT_stress="0.0008064217035914946 0.0011981325748228022 0.0011981325748228022 -0.0 -0.0 0.0" energy=-407.006265480792 free_energy=-407.006265480785 pbc="T T T"
Li      -0.38158352       0.00000000       0.00000000       1.00000000      -0.00797700       0.00000000       0.00000000      -0.26482515      -0.00000000      -0.00000000
Li       2.19317800       0.00000000       0.00000000       0.00000000       0.00797700       0.00000000      -0.00000000       0.26482515       0.00000000       0.00000000
2
Lattice="9.199526125560546 0.0 0.0 0.0 7.359620900448436 0.0 0.0 0.0 7.359620900448436" Properties=species:S:1:pos:R:3:initial_magmoms:R:1:OUTPUT_forces:R:3:forces:R:3 structure_name=dimer OUTPUT_energy=-1.71162767 OUTPUT_stress="0.0008064217035914946 0.0011981325748228022 0.0011981325748228022 -0.0 -0.0 0.0" energy=-407.01327941753 free_energy=-407.013279417528 pbc="T T T"
Li      -0.38754672       0.00000000       0.00000000       1.00000000      -0.00797700       0.00000000       0.00000000      -0.18830432       0.00000000       0.00000000
Li       2.22745195       0.00000000       0.00000000       0.00000000       0.00797700       0.00000000      -0.00000000       0.18830432      -0.00000000      -0.00000000
2
Lattice="9.336852731701017 0.0 0.0 0.0 7.469482185360814 0.0 0.0 0.0 7.469482185360814" Properties=species:S:1:pos:R:3:initial_magmoms:R:1:OUTPUT_forces:R:3:forces:R:3 structure_name=dimer OUTPUT_energy=-1.71162767 OUTPUT_stress="0.0008064217035914946 0.0011981325748228022 0.0011981325748228022 -0.0 -0.0 0.0" energy=-407.017731930773 free_energy=-407.017731930772 pbc="T T T"
Li      -0.39333185       0.00000000       0.00000000       1.00000000      -0.00797700       0.00000000       0.00000000      -0.12016103      -0.00000000      -0.00000000
Li       2.26070240       0.00000000       0.00000000       0.00000000       0.00797700       0.00000000      -0.00000000       0.12016103       0.00000000       0.00000000
2
Lattice="9.470254365429005 0.0 0.0 0.0 7.576203492343204 0.0 0.0 0.0 7.576203492343204" Properties=species:S:1:pos:R:3:initial_magmoms:R:1:OUTPUT_forces:R:3:forces:R:3 structure_name=dimer OUTPUT_energy=-1.71162767 OUTPUT_stress="0.0008064217035914946 0.0011981325748228022 0.0011981325748228022 -0.0 -0.0 0.0" energy=-407.019825369415 free_energy=-407.019825369414 pbc="T T T"
Li      -0.39895164       0.00000000       0.00000000       1.00000000      -0.00797700       0.00000000       0.00000000      -0.05916236      -0.00000000       0.00000000
Li       2.29300251       0.00000000       0.00000000       0.00000000       0.00797700       0.00000000      -0.00000000       0.05916236       0.00000000      -0.00000000
2
Lattice="9.6 0.0 0.0 0.0 7.68 0.0 0.0 0.0 7.68" Properties=species:S:1:pos:R:3:initial_magmoms:R:1:OUTPUT_forces:R:3:forces:R:3 structure_name=dimer OUTPUT_energy=-1.71162767 OUTPUT_stress="0.0008064217035914946 0.0011981325748228022 0.0011981325748228022 -0.0 -0.0 0.0" energy=-407.019757677639 free_energy=-407.019757677638 pbc="T T T"
Li      -0.40441741       0.00000000       0.00000000       1.00000000      -0.00797700       0.00000000       0.00000000      -0.00525794      -0.00000000       0.00000000
Li       2.32441741       0.00000000       0.00000000       0.00000000       0.00797700       0.00000000      -0.00000000       0.00525794       0.00000000      -0.00000000
2
Lattice="9.726330276673703 0.0 0.0 0.0 7.781064221338962 0.0 0.0 0.0 7.781064221338962" Properties=species:S:1:pos:R:3:initial_magmoms:R:1:OUTPUT_forces:R:3:forces:R:3 structure_name=dimer OUTPUT_energy=-1.71162767 OUTPUT_stress="0.0008064217035914946 0.0011981325748228022 0.0011981325748228022 -0.0 -0.0 0.0" energy=-407.01789996545 free_energy=-407.01789996545 pbc="T T T"
Li      -0.40973930       0.00000000       0.00000000       1.00000000      -0.00797700       0.00000000       0.00000000       0.04393926      -0.00000000      -0.00000000
Li       2.35500536       0.00000000       0.00000000       0.00000000       0.00797700       0.00000000      -0.00000000      -0.04393926       0.00000000       0.00000000
2
Lattice="9.849461452857776 0.0 0.0 0.0 7.879569162286221 0.0 0.0 0.0 7.879569162286221" Properties=species:S:1:pos:R:3:initial_magmoms:R:1:OUTPUT_forces:R:3:forces:R:3 structure_name=dimer OUTPUT_energy=-1.71162767 OUTPUT_stress="0.0008064217035914946 0.0011981325748228022 0.0011981325748228022 -0.0 -0.0 0.0" energy=-407.014424942704 free_energy=-407.014424942704 pbc="T T T"
Li      -0.41492643       0.00000000       0.00000000       1.00000000      -0.00797700       0.00000000       0.00000000       0.08987421       0.00000000       0.00000000
Li       2.38481872       0.00000000       0.00000000       0.00000000       0.00797700       0.00000000      -0.00000000      -0.08987421      -0.00000000      -0.00000000
2
Lattice="9.969588675554121 0.0 0.0 0.0 7.9756709404432975 0.0 0.0 0.0 7.9756709404432975" Properties=species:S:1:pos:R:3:initial_magmoms:R:1:OUTPUT_forces:R:3:forces:R:3 structure_name=dimer OUTPUT_energy=-1.71162767 OUTPUT_stress="0.0008064217035914946 0.0011981325748228022 0.0011981325748228022 -0.0 -0.0 0.0" energy=-407.009616634247 free_energy=-407.009616634247 pbc="T T T"
Li      -0.41998700       0.00000000       0.00000000       1.00000000      -0.00797700       0.00000000       0.00000000       0.13076606       0.00000000      -0.00000000
Li       2.41390474       0.00000000       0.00000000       0.00000000       0.00797700       0.00000000      -0.00000000      -0.13076606      -0.00000000       0.00000000
2
Lattice="10.08688871518637 0.0 0.0 0.0 8.069510972149097 0.0 0.0 0.0 8.069510972149097" Properties=species:S:1:pos:R:3:initial_magmoms:R:1:OUTPUT_forces:R:3:forces:R:3 structure_name=dimer OUTPUT_energy=-1.71162767 OUTPUT_stress="0.0008064217035914946 0.0011981325748228022 0.0011981325748228022 -0.0 -0.0 0.0" energy=-407.003714261325 free_energy=-407.003714261325 pbc="T T T"
Li      -0.42492848       0.00000000       0.00000000       1.00000000      -0.00797700       0.00000000       0.00000000       0.16738230       0.00000000       0.00000000
Li       2.44230622       0.00000000       0.00000000       0.00000000       0.00797700       0.00000000      -0.00000000      -0.16738230      -0.00000000      -0.00000000
2
Lattice="10.201522264153066 0.0 0.0 0.0 8.161217811322453 0.0 0.0 0.0 8.161217811322453" Properties=species:S:1:pos:R:3:initial_magmoms:R:1:OUTPUT_forces:R:3:forces:R:3 structure_name=dimer OUTPUT_energy=-1.71162767 OUTPUT_stress="0.0008064217035914946 0.0011981325748228022 0.0011981325748228022 -0.0 -0.0 0.0" energy=-406.996914525913 free_energy=-406.996914525913 pbc="T T T"
Li      -0.42975763       0.00000000       0.00000000       1.00000000      -0.00797700       0.00000000       0.00000000       0.20135431       0.00000000       0.00000000
Li       2.47006208       0.00000000       0.00000000       0.00000000       0.00797700       0.00000000      -0.00000000      -0.20135431      -0.00000000      -0.00000000
2
Lattice="1.9861481489507233 -3.440109497402006 0.0 1.9861481489507233 3.440109497402006 0.0 0.0 0.0 5.642466332246372" Properties=species:S:1:pos:R:3:initial_magmoms:R:1:OUTPUT_forces:R:3:forces:R:3 structure_name=AA-graphite OUTPUT_energy=-2.08860744 OUTPUT_stress="-0.00759912474189063 -0.00759912474189063 0.0014895361528920396 -0.0 0.0 -0.0" energy=-407.520237431866 free_energy=-407.518240742532 pbc="T T T"
Li       0.00000000       0.00000000       2.70475654       1.00000000       0.00000000       0.00000000       0.00000000       0.00000001      -0.00022910       0.00000000
Li       1.98614815       1.14670317       2.70475654       0.00000000       0.00000000       0.00000000       0.00000000      -0.00000001       0.00022910      -0.00000000
2
Lattice="2.01871374268808 -3.496514760203575 0.0 2.01871374268808 3.496514760203575 0.0 0.0 0.0 5.734982223545681" Properties=species:S:1:pos:R:3:initial_magmoms:R:1:OUTPUT_forces:R:3:forces:R:3 structure_name=AA-graphite OUTPUT_energy=-2.08860744 OUTPUT_stress="-0.00759912474189063 -0.00759912474189063 0.0014895361528920396 -0.0 0.0 -0.0" energy=-407.561280589281 free_energy=-407.559386892156 pbc="T T T"
Li       0.00000000       0.00000000       2.74910469       1.00000000       0.00000000       0.00000000       0.00000000       0.00000001      -0.00003107      -0.00000000
Li       2.01871375       1.16550492       2.74910469       0.00000000       0.00000000       0.00000000       0.00000000      -0.00000001       0.00003107       0.00000000
2
Lattice="2.0502612405123024 -3.5511566291606877 0.0 2.0502612405123024 3.5511566291606877 0.0 0.0 0.0 5.82460579690995" Properties=species:S:1:pos:R:3:initial_magmoms:R:1:OUTPUT_forces:R:3:forces:R:3 structure_name=AA-graphite OUTPUT_energy=-2.08860744 OUTPUT_stress="-0.00759912474189063 -0.00759912474189063 0.0014895361528920396 -0.0 0.0 -0.0" energy=-407.595570117413 free_energy=-407.593783120547 pbc="T T T"
Li       0.00000000       0.00000000       2.79206639       1.00000000       0.00000000       0.00000000       0.00000000       0.00000001       0.00016847       0.00000000
Li       2.05026124       1.18371888       2.79206639       0.00000000       0.00000000       0.00000000       0.00000000      -0.00000001      -0.00016847      -0.00000000
2
Lattice="2.0808666667068776 -3.6041667821946475 0.0 2.0808666667068776 3.6041667821946475 0.0 0.0 0.0 5.911553030417266" Properties=species:S:1:pos:R:3:initial_magmoms:R:1:OUTPUT_forces:R:3:forces:R:3 structure_name=AA-graphite OUTPUT_energy=-2.08860744 OUTPUT_stress="-0.00759912474189063 -0.00759912474189063 0.0014895361528920396 -0.0 0.0 -0.0" energy=-407.624104127086 free_energy=-407.622424120612 pbc="T T T"
Li       0.00000000       0.00000000       2.83374517       1.00000000       0.00000000       0.00000000       0.00000000       0.00000001       0.00078815       0.00000000
Li       2.08086667       1.20138893       2.83374517       0.00000000       0.00000000       0.00000000       0.00000000      -0.00000001      -0.00078815      -0.00000000
2
Lattice="2.1105973501486672 -3.6556618363407267 0.0 2.1105973501486672 3.6556618363407267 0.0 0.0 0.0 5.996015199285986" Properties=species:S:1:pos:R:3:initial_magmoms:R:1:OUTPUT_forces:R:3:forces:R:3 structure_name=AA-graphite OUTPUT_energy=-2.08860744 OUTPUT_stress="-0.00759912474189063 -0.00759912474189063 0.0014895361528920396 -0.0 0.0 -0.0" energy=-407.647774641022 free_energy=-407.646197382862 pbc="T T T"
Li       0.00000000       0.00000000       2.87423272       1.00000000       0.00000000       0.00000000       0.00000000       0.00000001       0.00063349       0.00000000
Li       2.11059735       1.21855395       2.87423272       0.00000000       0.00000000       0.00000000       0.00000000      -0.00000001      -0.00063349      -0.00000000
2
Lattice="2.1395132358210254 -3.7057456193555147 0.0 2.1395132358210254 3.7057456193555147 0.0 0.0 0.0 6.0781626017642765" Properties=species:S:1:pos:R:3:initial_magmoms:R:1:OUTPUT_forces:R:3:forces:R:3 structure_name=AA-graphite OUTPUT_energy=-2.08860744 OUTPUT_stress="-0.00759912474189063 -0.00759912474189063 0.0014895361528920396 -0.0 0.0 -0.0" energy=-407.667309000455 free_energy=-407.665821431168 pbc="T T T"
Li       0.00000000       0.00000000       2.91361066       1.00000000       0.00000000       0.00000000       0.00000000       0.00000001       0.00029663      -0.00000000
Li       2.13951324       1.23524854       2.91361066       0.00000000       0.00000000       0.00000000       0.00000000      -0.00000001      -0.00029663       0.00000000
2
Lattice="2.1676679544698088 -3.7545110224154676 0.0 2.1676679544698088 3.7545110224154676 0.0 0.0 0.0 6.158147597925593" Properties=species:S:1:pos:R:3:initial_magmoms:R:1:OUTPUT_forces:R:3:forces:R:3 structure_name=AA-graphite OUTPUT_energy=-2.08860744 OUTPUT_stress="-0.00759912474189063 -0.00759912474189063 0.0014895361528920396 -0.0 0.0 -0.0" energy=-407.683264500909 free_energy=-407.681817209345 pbc="T T T"
Li       0.00000000       0.00000000       2.95195204       1.00000000       0.00000000       0.00000000       0.00000000       0.00000001       0.00021059       0.00000000
Li       2.16766796       1.25150367       2.95195204       0.00000000       0.00000000       0.00000000       0.00000000      -0.00000001      -0.00021059      -0.00000000
2
Lattice="2.195109702510229 -3.8020415241602823 0.0 2.195109702510229 3.8020415241602823 0.0 0.0 0.0 6.23610710940406" Properties=species:S:1:pos:R:3:initial_magmoms:R:1:OUTPUT_forces:R:3:forces:R:3 structure_name=AA-graphite OUTPUT_energy=-2.08860744 OUTPUT_stress="-0.00759912474189063 -0.00759912474189063 0.0014895361528920396 -0.0 0.0 -0.0" energy=-407.696129673184 free_energy=-407.694606103098 pbc="T T T"
Li       0.00000000       0.00000000       2.98932249       1.00000000       0.00000000       0.00000000       0.00000000       0.00000001      -0.00006452       0.00000000
Li       2.19510971       1.26734717       2.98932249       0.00000000       0.00000000       0.00000000       0.00000000      -0.00000001       0.00006452      -0.00000000
2
Lattice="2.221881971566609 -3.848412454292816 0.0 2.221881971566609 3.848412454292816 0.0 0.0 0.0 6.312164691950595" Properties=species:S:1:pos:R:3:initial_magmoms:R:1:OUTPUT_forces:R:3:forces:R:3 structure_name=AA-graphite OUTPUT_energy=-2.08860744 OUTPUT_stress="-0.00759912474189063 -0.00759912474189063 0.0014895361528920396 -0.0 0.0 -0.0" energy=-407.706454930222 free_energy=-407.70474890539 pbc="T T T"
Li       0.00000000       0.00000000       3.02578123       1.00000000       0.00000000       0.00000000       0.00000000       0.00000001      -0.00023925       0.00000000
Li       2.22188198       1.28280415       3.02578123       0.00000000       0.00000000       0.00000000       0.00000000      -0.00000001       0.00023925      -0.00000000
2
Lattice="2.248024157749477 -3.893692048877966 0.0 2.248024157749477 3.893692048877966 0.0 0.0 0.0 6.386432266333741" Properties=species:S:1:pos:R:3:initial_magmoms:R:1:OUTPUT_forces:R:3:forces:R:3 structure_name=AA-graphite OUTPUT_energy=-2.08860744 OUTPUT_stress="-0.00759912474189063 -0.00759912474189063 0.0014895361528920396 -0.0 0.0 -0.0" energy=-407.714789402903 free_energy=-407.712880370224 pbc="T T T"
Li       0.00000000       0.00000000       3.06138193       1.00000000       0.00000000       0.00000000       0.00000000       0.00000001       0.00003714       0.00000000
Li       2.24802416       1.29789735       3.06138193       0.00000000       0.00000000       0.00000000       0.00000000      -0.00000001      -0.00003714      -0.00000000
2
Lattice="2.2735720739248295 -3.9379423376190603 0.0 2.2735720739248295 3.9379423376190603 0.0 0.0 0.0 6.459011573650083" Properties=species:S:1:pos:R:3:initial_magmoms:R:1:OUTPUT_forces:R:3:forces:R:3 structure_name=AA-graphite OUTPUT_energy=-2.08860744 OUTPUT_stress="-0.00759912474189063 -0.00759912474189063 0.0014895361528920396 -0.0 0.0 -0.0" energy=-407.721530126701 free_energy=-407.719459205213 pbc="T T T"
Li       0.00000000       0.00000000       3.09617334       1.00000000       0.00000000       0.00000000       0.00000000       0.00000001       0.00029044       0.00000000
Li       2.27357208       1.31264745       3.09617334       0.00000000       0.00000000       0.00000000       0.00000000      -0.00000001      -0.00029044      -0.00000000
2
Lattice="0.0 2.624258529571773 2.624258529571773 2.624258529571773 0.0 2.624258529571773 2.624258529571773 2.624258529571773 0.0" Properties=species:S:1:pos:R:3:initial_magmoms:R:1:OUTPUT_forces:R:3:forces:R:3 config_source=A4_C.POSCAR cutoff=-1.0 nneightol=1.2 structure_name=diamond OUTPUT_energy=-2.7668775 OUTPUT_stress="-0.004872128265173597 -0.004872128265173597 -0.004872128265173597 0.0 0.0 -0.0" energy=-408.238000215902 free_energy=-408.236960855658 pbc="T T T"
Li       0.65606463       0.65606463       0.65606463       1.00000000       0.00000000       0.00000000       0.00000000       0.00000000       0.00000000      -0.00000000
Li       4.59245243       4.59245243       4.59245243       0.00000000       0.00000000       0.00000000       0.00000000      -0.00000000      -0.00000000       0.00000000
2
Lattice="0.0 2.667286808797054 2.667286808797054 2.667286808797054 0.0 2.667286808797054 2.667286808797054 2.667286808797054 0.0" Properties=species:S:1:pos:R:3:initial_magmoms:R:1:OUTPUT_forces:R:3:forces:R:3 config_source=A4_C.POSCAR cutoff=-1.0 nneightol=1.2 structure_name=diamond OUTPUT_energy=-2.7668775 OUTPUT_stress="-0.004872128265173597 -0.004872128265173597 -0.004872128265173597 0.0 0.0 -0.0" energy=-408.270603781325 free_energy=-408.269333711909 pbc="T T T"
Li       0.66682170       0.66682170       0.66682170       1.00000000       0.00000000       0.00000000       0.00000000       0.00000000       0.00000000      -0.00000000
Li       4.66775192       4.66775192       4.66775192       0.00000000       0.00000000       0.00000000       0.00000000      -0.00000000      -0.00000000       0.00000000
2
Lattice="0.0 2.708969897893706 2.708969897893706 2.708969897893706 0.0 2.708969897893706 2.708969897893706 2.708969897893706 0.0" Properties=species:S:1:pos:R:3:initial_magmoms:R:1:OUTPUT_forces:R:3:forces:R:3 config_source=A4_C.POSCAR cutoff=-1.0 nneightol=1.2 structure_name=diamond OUTPUT_energy=-2.7668775 OUTPUT_stress="-0.004872128265173597 -0.004872128265173597 -0.004872128265173597 0.0 0.0 -0.0" energy=-408.296495880677 free_energy=-408.295136165936 pbc="T T T"
Li       0.67724247       0.67724247       0.67724247       1.00000000       0.00000000       0.00000000       0.00000000       0.00000000       0.00000000      -0.00000000
Li       4.74069732       4.74069732       4.74069732       0.00000000       0.00000000       0.00000000       0.00000000      -0.00000000      -0.00000000       0.00000000
2
Lattice="0.0 2.749408246253935 2.749408246253935 2.749408246253935 0.0 2.749408246253935 2.749408246253935 2.749408246253935 0.0" Properties=species:S:1:pos:R:3:initial_magmoms:R:1:OUTPUT_forces:R:3:forces:R:3 config_source=A4_C.POSCAR cutoff=-1.0 nneightol=1.2 structure_name=diamond OUTPUT_energy=-2.7668775 OUTPUT_stress="-0.004872128265173597 -0.004872128265173597 -0.004872128265173597 0.0 0.0 -0.0" energy=-408.316617855531 free_energy=-408.3151510151 pbc="T T T"
Li       0.68735206       0.68735206       0.68735206       1.00000000       0.00000000       0.00000000       0.00000000       0.00000000       0.00000000      -0.00000000
Li       4.81146443       4.81146443       4.81146443       0.00000000       0.00000000       0.00000000       0.00000000      -0.00000000      -0.00000000       0.00000000
2
Lattice="0.0 2.788690814200003 2.788690814200003 2.788690814200003 0.0 2.788690814200003 2.788690814200003 2.788690814200003 0.0" Properties=species:S:1:pos:R:3:initial_magmoms:R:1:OUTPUT_forces:R:3:forces:R:3 config_source=A4_C.POSCAR cutoff=-1.0 nneightol=1.2 structure_name=diamond OUTPUT_energy=-2.7668775 OUTPUT_stress="-0.004872128265173597 -0.004872128265173597 -0.004872128265173597 0.0 0.0 -0.0" energy=-408.331765606788 free_energy=-408.330116541428 pbc="T T T"
Li       0.69717270       0.69717270       0.69717270       1.00000000       0.00000000       0.00000000       0.00000000       0.00000000       0.00000000      -0.00000000
Li       4.88020892       4.88020892       4.88020892       0.00000000       0.00000000       0.00000000       0.00000000      -0.00000000      -0.00000000       0.00000000
2
Lattice="0.0 2.8268968058607444 2.8268968058607444 2.8268968058607444 0.0 2.8268968058607444 2.8268968058607444 2.8268968058607444 0.0" Properties=species:S:1:pos:R:3:initial_magmoms:R:1:OUTPUT_forces:R:3:forces:R:3 config_source=A4_C.POSCAR cutoff=-1.0 nneightol=1.2 structure_name=diamond OUTPUT_energy=-2.7668775 OUTPUT_stress="-0.004872128265173597 -0.004872128265173597 -0.004872128265173597 0.0 0.0 -0.0" energy=-408.342784470253 free_energy=-408.340949193816 pbc="T T T"
Li       0.70672420       0.70672420       0.70672420       1.00000000       0.00000000       0.00000000       0.00000000       0.00000000       0.00000000      -0.00000000
Li       4.94706941       4.94706941       4.94706941       0.00000000       0.00000000       0.00000000       0.00000000      -0.00000000      -0.00000000       0.00000000
2
Lattice="0.0 2.8640970824870355 2.8640970824870355 2.8640970824870355 0.0 2.8640970824870355 2.8640970824870355 2.8640970824870355 0.0" Properties=species:S:1:pos:R:3:initial_magmoms:R:1:OUTPUT_forces:R:3:forces:R:3 config_source=A4_C.POSCAR cutoff=-1.0 nneightol=1.2 structure_name=diamond OUTPUT_energy=-2.7668775 OUTPUT_stress="-0.004872128265173597 -0.004872128265173597 -0.004872128265173597 0.0 0.0 -0.0" energy=-408.350364311338 free_energy=-408.348400492091 pbc="T T T"
Li       0.71602427       0.71602427       0.71602427       1.00000000       0.00000000       0.00000000       0.00000000       0.00000000       0.00000000      -0.00000000
Li       5.01216989       5.01216989       5.01216989       0.00000000       0.00000000       0.00000000       0.00000000      -0.00000000      -0.00000000       0.00000000
2
Lattice="0.0 2.900355325055435 2.900355325055435 2.900355325055435 0.0 2.900355325055435 2.900355325055435 2.900355325055435 0.0" Properties=species:S:1:pos:R:3:initial_magmoms:R:1:OUTPUT_forces:R:3:forces:R:3 config_source=A4_C.POSCAR cutoff=-1.0 nneightol=1.2 structure_name=diamond OUTPUT_energy=-2.7668775 OUTPUT_stress="-0.004872128265173597 -0.004872128265173597 -0.004872128265173597 0.0 0.0 -0.0" energy=-408.354951460942 free_energy=-408.352923432763 pbc="T T T"
Li       0.72508883       0.72508883       0.72508883       1.00000000       0.00000000       0.00000000       0.00000000       0.00000000       0.00000000       0.00000000
Li       5.07562182       5.07562182       5.07562182       0.00000000       0.00000000       0.00000000       0.00000000      -0.00000000      -0.00000000      -0.00000000
2
Lattice="0.0 2.9357289981947288 2.9357289981947288 2.9357289981947288 0.0 2.9357289981947288 2.9357289981947288 2.9357289981947288 0.0" Properties=species:S:1:pos:R:3:initial_magmoms:R:1:OUTPUT_forces:R:3:forces:R:3 config_source=A4_C.POSCAR cutoff=-1.0 nneightol=1.2 structure_name=diamond OUTPUT_energy=-2.7668775 OUTPUT_stress="-0.004872128265173597 -0.004872128265173597 -0.004872128265173597 0.0 0.0 -0.0" energy=-408.35694637434 free_energy=-408.35488258477 pbc="T T T"
Li       0.73393225       0.73393225       0.73393225       1.00000000       0.00000000       0.00000000       0.00000000       0.00000000       0.00000000       0.00000000
Li       5.13752575       5.13752575       5.13752575       0.00000000       0.00000000       0.00000000       0.00000000      -0.00000000      -0.00000000      -0.00000000
2
Lattice="0.0 2.970270155211786 2.970270155211786 2.970270155211786 0.0 2.970270155211786 2.970270155211786 2.970270155211786 0.0" Properties=species:S:1:pos:R:3:initial_magmoms:R:1:OUTPUT_forces:R:3:forces:R:3 config_source=A4_C.POSCAR cutoff=-1.0 nneightol=1.2 structure_name=diamond OUTPUT_energy=-2.7668775 OUTPUT_stress="-0.004872128265173597 -0.004872128265173597 -0.004872128265173597 0.0 0.0 -0.0" energy=-408.356690866517 free_energy=-408.354575084484 pbc="T T T"
Li       0.74256754       0.74256754       0.74256754       1.00000000       0.00000000       0.00000000       0.00000000       0.00000000       0.00000000       0.00000000
Li       5.19797277       5.19797277       5.19797277       0.00000000       0.00000000       0.00000000       0.00000000      -0.00000000      -0.00000000      -0.00000000
2
Lattice="0.0 3.004026114942872 3.004026114942872 3.004026114942872 0.0 3.004026114942872 3.004026114942872 3.004026114942872 0.0" Properties=species:S:1:pos:R:3:initial_magmoms:R:1:OUTPUT_forces:R:3:forces:R:3 config_source=A4_C.POSCAR cutoff=-1.0 nneightol=1.2 structure_name=diamond OUTPUT_energy=-2.7668775 OUTPUT_stress="-0.004872128265173597 -0.004872128265173597 -0.004872128265173597 0.0 0.0 -0.0" energy=-408.354423374984 free_energy=-408.352221440416 pbc="T T T"
Li       0.75100653       0.75100653       0.75100653       1.00000000       0.00000000       0.00000000       0.00000000       0.00000000       0.00000000       0.00000000
Li       5.25704570       5.25704570       5.25704570       0.00000000       0.00000000       0.00000000       0.00000000      -0.00000000      -0.00000000      -0.00000000
2
Lattice="0.0 4.894211992040017 0.0 2.447105996020008 -2.4471059960200083 1.335170370852235 2.447105996020008 2.4471059960200083 -1.335170370852235" Properties=species:S:1:pos:R:3:initial_magmoms:R:1:OUTPUT_forces:R:3:forces:R:3 structure_name=beta-Sn OUTPUT_energy=-3.66490478 OUTPUT_stress="-0.0012581072360134142 -0.0012581072360134142 -0.0005006252054779702 -0.0 0.0 -0.0" energy=-409.137960740094 free_energy=-409.135752339774 pbc="T T T"
Li       0.00000000       3.67065900       0.33379259       1.00000000       0.00000000       0.00000000       0.00000000      -0.00000001      -0.00000000      -0.00000109
Li       2.44710599      -1.22355300       1.00137778       0.00000000       0.00000000       0.00000000       0.00000000       0.00000001       0.00000000       0.00000109
2
Lattice="0.0 4.97445923818904 0.0 2.4872296190945193 -2.48722961909452 1.3570623006613483 2.4872296190945193 2.48722961909452 -1.3570623006613485" Properties=species:S:1:pos:R:3:initial_magmoms:R:1:OUTPUT_forces:R:3:forces:R:3 structure_name=beta-Sn OUTPUT_energy=-3.66490478 OUTPUT_stress="-0.0012581072360134142 -0.0012581072360134142 -0.0005006252054779702 -0.0 0.0 -0.0" energy=-409.177220392942 free_energy=-409.175005772808 pbc="T T T"
Li       0.00000000       3.73084443       0.33926557       1.00000000       0.00000000       0.00000000       0.00000000      -0.00000001      -0.00000000      -0.00000434
Li       2.48722962      -1.24361481       1.01779672       0.00000000       0.00000000       0.00000000       0.00000000       0.00000001       0.00000000       0.00000434
2
Lattice="0.0 5.052197720211005 0.0 2.526098860105502 -2.5260988601055026 1.3782698245772655 2.526098860105502 2.5260988601055026 -1.3782698245772658" Properties=species:S:1:pos:R:3:initial_magmoms:R:1:OUTPUT_forces:R:3:forces:R:3 structure_name=beta-Sn OUTPUT_energy=-3.66490478 OUTPUT_stress="-0.0012581072360134142 -0.0012581072360134142 -0.0005006252054779702 -0.0 0.0 -0.0" energy=-409.205460258325 free_energy=-409.203240057766 pbc="T T T"
Li       0.00000000       3.78914829       0.34456746       1.00000000       0.00000000       0.00000000       0.00000000      -0.00000001      -0.00000000      -0.00000632
Li       2.52609886      -1.26304943       1.03370237       0.00000000       0.00000000       0.00000000       0.00000000       0.00000001       0.00000000       0.00000632
2
Lattice="0.0 5.127614775067722 0.0 2.5638073875338607 -2.563807387533861 1.3988440492462004 2.5638073875338607 2.563807387533861 -1.3988440492462006" Properties=species:S:1:pos:R:3:initial_magmoms:R:1:OUTPUT_forces:R:3:forces:R:3 structure_name=beta-Sn OUTPUT_energy=-3.66490478 OUTPUT_stress="-0.0012581072360134142 -0.0012581072360134142 -0.0005006252054779702 -0.0 0.0 -0.0" energy=-409.224501060496 free_energy=-409.222273061347 pbc="T T T"
Li       0.00000000       3.84571109       0.34971101       1.00000000       0.00000000       0.00000000       0.00000000      -0.00000001      -0.00000000      -0.00000677
Li       2.56380738      -1.28190369       1.04913304       0.00000000       0.00000000       0.00000000       0.00000000       0.00000001       0.00000000       0.00000677
2
Lattice="0.0 5.200876312737621 0.0 2.60043815636881 -2.6004381563688104 1.418830235904852 2.60043815636881 2.6004381563688104 -1.4188302359048521" Properties=species:S:1:pos:R:3:initial_magmoms:R:1:OUTPUT_forces:R:3:forces:R:3 structure_name=beta-Sn OUTPUT_energy=-3.66490478 OUTPUT_stress="-0.0012581072360134142 -0.0012581072360134142 -0.0005006252054779702 -0.0 0.0 -0.0" energy=-409.235854978643 free_energy=-409.233614600245 pbc="T T T"
Li       0.00000000       3.90065724       0.35470756       1.00000000       0.00000000       0.00000000       0.00000000      -0.00000001      -0.00000000      -0.00000658
Li       2.60043815      -1.30021908       1.06412268       0.00000000       0.00000000       0.00000000       0.00000000       0.00000001       0.00000000       0.00000658
2
Lattice="0.0 5.27213004801053 0.0 2.6360650240052648 -2.636065024005265 1.4382686820333948 2.6360650240052648 2.636065024005265 -1.438268682033395" Properties=species:S:1:pos:R:3:initial_magmoms:R:1:OUTPUT_forces:R:3:forces:R:3 structure_name=beta-Sn OUTPUT_energy=-3.66490478 OUTPUT_stress="-0.0012581072360134142 -0.0012581072360134142 -0.0005006252054779702 -0.0 0.0 -0.0" energy=-409.240812481171 free_energy=-409.238553592909 pbc="T T T"
Li       0.00000000       3.95409754       0.35956717       1.00000000       0.00000000       0.00000000       0.00000000      -0.00000001      -0.00000000      -0.00000553
Li       2.63606502      -1.31803251       1.07870151       0.00000000       0.00000000       0.00000000       0.00000000       0.00000001       0.00000000       0.00000553
2
Lattice="0.0 5.3415081363047925 0.0 2.670754068152396 -2.6707540681523962 1.4571954404221865 2.670754068152396 2.6707540681523962 -1.4571954404221867" Properties=species:S:1:pos:R:3:initial_magmoms:R:1:OUTPUT_forces:R:3:forces:R:3 structure_name=beta-Sn OUTPUT_energy=-3.66490478 OUTPUT_stress="-0.0012581072360134142 -0.0012581072360134142 -0.0005006252054779702 -0.0 0.0 -0.0" energy=-409.24040323803 free_energy=-409.238118990445 pbc="T T T"
Li       0.00000000       4.00613111       0.36429886       1.00000000       0.00000000       0.00000000       0.00000000      -0.00000001      -0.00000000      -0.00000422
Li       2.67075406      -1.33537703       1.09289658       0.00000000       0.00000000       0.00000000       0.00000000       0.00000001       0.00000000       0.00000422
2
Lattice="0.0 5.409129341909681 0.0 2.70456467095484 -2.7045646709548405 1.4756429106813 2.70456467095484 2.7045646709548405 -1.4756429106813003" Properties=species:S:1:pos:R:3:initial_magmoms:R:1:OUTPUT_forces:R:3:forces:R:3 structure_name=beta-Sn OUTPUT_energy=-3.66490478 OUTPUT_stress="-0.0012581072360134142 -0.0012581072360134142 -0.0005006252054779702 -0.0 0.0 -0.0" energy=-409.235461834389 free_energy=-409.233145484006 pbc="T T T"
Li       0.00000000       4.05684701       0.36891073       1.00000000       0.00000000       0.00000000       0.00000000      -0.00000001      -0.00000000      -0.00000329
Li       2.70456467      -1.35228233       1.10673218       0.00000000       0.00000000       0.00000000       0.00000000       0.00000001       0.00000000       0.00000329
2
Lattice="0.0 5.475100835697332 0.0 2.7375504178486656 -2.737550417848666 1.493640329667113 2.7375504178486656 2.737550417848666 -1.4936403296671132" Properties=species:S:1:pos:R:3:initial_magmoms:R:1:OUTPUT_forces:R:3:forces:R:3 structure_name=beta-Sn OUTPUT_energy=-3.66490478 OUTPUT_stress="-0.0012581072360134142 -0.0012581072360134142 -0.0005006252054779702 -0.0 0.0 -0.0" energy=-409.226681202448 free_energy=-409.224326692344 pbc="T T T"
Li       0.00000000       4.10632563       0.37341008       1.00000000       0.00000000       0.00000000       0.00000000      -0.00000001      -0.00000001      -0.00000253
Li       2.73755041      -1.36877521       1.12023025       0.00000000       0.00000000       0.00000000       0.00000000       0.00000001       0.00000001       0.00000253
2
Lattice="0.0 5.539519696486709 0.0 2.769759848243354 -2.7697598482433543 1.5112141810633986 2.769759848243354 2.7697598482433543 -1.5112141810633988" Properties=species:S:1:pos:R:3:initial_magmoms:R:1:OUTPUT_forces:R:3:forces:R:3 structure_name=beta-Sn OUTPUT_energy=-3.66490478 OUTPUT_stress="-0.0012581072360134142 -0.0012581072360134142 -0.0005006252054779702 -0.0 0.0 -0.0" energy=-409.214621622017 free_energy=-409.212224033035 pbc="T T T"
Li       0.00000000       4.15463978       0.37780354       1.00000000       0.00000000       0.00000000       0.00000000      -0.00000001      -0.00000001      -0.00000214
Li       2.76975984      -1.38487992       1.13341063       0.00000000       0.00000000       0.00000000       0.00000000       0.00000001       0.00000001       0.00000214
2
Lattice="0.0 5.602474173363521 0.0 2.80123708668176 -2.8012370866817604 1.5283885397497672 2.80123708668176 2.8012370866817604 -1.5283885397497674" Properties=species:S:1:pos:R:3:initial_magmoms:R:1:OUTPUT_forces:R:3:forces:R:3 structure_name=beta-Sn OUTPUT_energy=-3.66490478 OUTPUT_stress="-0.0012581072360134142 -0.0012581072360134142 -0.0005006252054779702 -0.0 0.0 -0.0" energy=-409.199762835813 free_energy=-409.19731864327 pbc="T T T"
Li       0.00000000       4.20185563       0.38209713       1.00000000       0.00000000       0.00000000       0.00000000      -0.00000001      -0.00000000      -0.00000206
Li       2.80123708      -1.40061854       1.14629140       0.00000000       0.00000000       0.00000000       0.00000000       0.00000001       0.00000000       0.00000206
1
Lattice="-1.5791759612733334 1.5791759612733334 1.5791759612733334 1.5791759612733334 -1.5791759612733334 1.5791759612733334 1.5791759612733334 1.5791759612733334 -1.5791759612733334" Properties=species:S:1:pos:R:3:initial_magmoms:R:1:OUTPUT_forces:R:3:forces:R:3 config_source=A2_W.POSCAR cutoff=-1.0 nneightol=1.2 structure_name=bcc OUTPUT_energy=-1.90434868 OUTPUT_stress="-0.0025675508845872186 -0.0025675508845872186 -0.0025675508845872186 0.0 0.0 0.0" energy=-204.628958834744 free_energy=-204.627832082924 pbc="T T T"
Li       0.00000000       0.00000000       0.00000000       1.00000000       0.00000000       0.00000000       0.00000000       0.00000000       0.00000000       0.00000000
1
Lattice="-1.60506869380781 1.60506869380781 1.60506869380781 1.60506869380781 -1.60506869380781 1.60506869380781 1.60506869380781 1.60506869380781 -1.60506869380781" Properties=species:S:1:pos:R:3:initial_magmoms:R:1:OUTPUT_forces:R:3:forces:R:3 config_source=A2_W.POSCAR cutoff=-1.0 nneightol=1.2 structure_name=bcc OUTPUT_energy=-1.90434868 OUTPUT_stress="-0.0025675508845872186 -0.0025675508845872186 -0.0025675508845872186 0.0 0.0 0.0" energy=-204.651831118834 free_energy=-204.650715098813 pbc="T T T"
Li       0.00000000       0.00000000       0.00000000       1.00000000       0.00000000       0.00000000       0.00000000       0.00000000       0.00000000       0.00000000
1
Lattice="-1.630151943629156 1.630151943629156 1.630151943629156 1.630151943629156 -1.630151943629156 1.630151943629156 1.630151943629156 1.630151943629156 -1.630151943629156" Properties=species:S:1:pos:R:3:initial_magmoms:R:1:OUTPUT_forces:R:3:forces:R:3 config_source=A2_W.POSCAR cutoff=-1.0 nneightol=1.2 structure_name=bcc OUTPUT_energy=-1.90434868 OUTPUT_stress="-0.0025675508845872186 -0.0025675508845872186 -0.0025675508845872186 0.0 0.0 0.0" energy=-204.668651406922 free_energy=-204.667542439565 pbc="T T T"
Li       0.00000000       0.00000000       0.00000000       1.00000000       0.00000000       0.00000000       0.00000000       0.00000000       0.00000000       0.00000000
1
Lattice="-1.6544861572458651 1.6544861572458651 1.6544861572458651 1.6544861572458651 -1.6544861572458651 1.6544861572458651 1.6544861572458651 1.6544861572458651 -1.6544861572458651" Properties=species:S:1:pos:R:3:initial_magmoms:R:1:OUTPUT_forces:R:3:forces:R:3 config_source=A2_W.POSCAR cutoff=-1.0 nneightol=1.2 structure_name=bcc OUTPUT_energy=-1.90434868 OUTPUT_stress="-0.0025675508845872186 -0.0025675508845872186 -0.0025675508845872186 0.0 0.0 0.0" energy=-204.680457810323 free_energy=-204.679353224204 pbc="T T T"
Li       0.00000000       0.00000000       0.00000000       1.00000000       0.00000000       0.00000000       0.00000000       0.00000000       0.00000000       0.00000000
1
Lattice="-1.6781248674942948 1.6781248674942948 1.6781248674942948 1.6781248674942948 -1.6781248674942948 1.6781248674942948 1.6781248674942948 1.6781248674942948 -1.6781248674942948" Properties=species:S:1:pos:R:3:initial_magmoms:R:1:OUTPUT_forces:R:3:forces:R:3 config_source=A2_W.POSCAR cutoff=-1.0 nneightol=1.2 structure_name=bcc OUTPUT_energy=-1.90434868 OUTPUT_stress="-0.0025675508845872186 -0.0025675508845872186 -0.0025675508845872186 0.0 0.0 0.0" energy=-204.688042559551 free_energy=-204.68694019633 pbc="T T T"
Li       0.00000000       0.00000000       0.00000000       1.00000000       0.00000000       0.00000000       0.00000000       0.00000000       0.00000000       0.00000000
1
Lattice="-1.7011157363158578 1.7011157363158578 1.7011157363158578 1.7011157363158578 -1.7011157363158578 1.7011157363158578 1.7011157363158578 1.7011157363158578 -1.7011157363158578" Properties=species:S:1:pos:R:3:initial_magmoms:R:1:OUTPUT_forces:R:3:forces:R:3 config_source=A2_W.POSCAR cutoff=-1.0 nneightol=1.2 structure_name=bcc OUTPUT_energy=-1.90434868 OUTPUT_stress="-0.0025675508845872186 -0.0025675508845872186 -0.0025675508845872186 0.0 0.0 0.0" energy=-204.692014847456 free_energy=-204.690912822328 pbc="T T T"
Li       0.00000000       0.00000000       0.00000000       1.00000000       0.00000000       0.00000000       0.00000000       0.00000000       0.00000000       0.00000000
1
Lattice="-1.7235014052348967 1.7235014052348967 1.7235014052348967 1.7235014052348967 -1.7235014052348967 1.7235014052348967 1.7235014052348967 1.7235014052348967 -1.7235014052348967" Properties=species:S:1:pos:R:3:initial_magmoms:R:1:OUTPUT_forces:R:3:forces:R:3 config_source=A2_W.POSCAR cutoff=-1.0 nneightol=1.2 structure_name=bcc OUTPUT_energy=-1.90434868 OUTPUT_stress="-0.0025675508845872186 -0.0025675508845872186 -0.0025675508845872186 0.0 0.0 0.0" energy=-204.69295552078 free_energy=-204.691852230658 pbc="T T T"
Li       0.00000000       0.00000000       0.00000000       1.00000000       0.00000000       0.00000000       0.00000000       0.00000000       0.00000000       0.00000000
1
Lattice="-1.7453201949680015 1.7453201949680015 1.7453201949680015 1.7453201949680015 -1.7453201949680015 1.7453201949680015 1.7453201949680015 1.7453201949680015 -1.7453201949680015" Properties=species:S:1:pos:R:3:initial_magmoms:R:1:OUTPUT_forces:R:3:forces:R:3 config_source=A2_W.POSCAR cutoff=-1.0 nneightol=1.2 structure_name=bcc OUTPUT_energy=-1.90434868 OUTPUT_stress="-0.0025675508845872186 -0.0025675508845872186 -0.0025675508845872186 0.0 0.0 0.0" energy=-204.691323960007 free_energy=-204.690217934632 pbc="T T T"
Li       0.00000000       0.00000000       0.00000000       1.00000000       0.00000000       0.00000000       0.00000000       0.00000000       0.00000000       0.00000000
1
Lattice="-1.7666066854772382 1.7666066854772382 1.7666066854772382 1.7666066854772382 -1.7666066854772382 1.7666066854772382 1.7666066854772382 1.7666066854772382 -1.7666066854772382" Properties=species:S:1:pos:R:3:initial_magmoms:R:1:OUTPUT_forces:R:3:forces:R:3 config_source=A2_W.POSCAR cutoff=-1.0 nneightol=1.2 structure_name=bcc OUTPUT_energy=-1.90434868 OUTPUT_stress="-0.0025675508845872186 -0.0025675508845872186 -0.0025675508845872186 0.0 0.0 0.0" energy=-204.687478083969 free_energy=-204.686367945925 pbc="T T T"
Li       0.00000000       0.00000000       0.00000000       1.00000000       0.00000000       0.00000000       0.00000000       0.00000000       0.00000000       0.00000000
1
Lattice="-1.7873922004031648 1.7873922004031648 1.7873922004031648 1.7873922004031648 -1.7873922004031648 1.7873922004031648 1.7873922004031648 1.7873922004031648 -1.7873922004031648" Properties=species:S:1:pos:R:3:initial_magmoms:R:1:OUTPUT_forces:R:3:forces:R:3 config_source=A2_W.POSCAR cutoff=-1.0 nneightol=1.2 structure_name=bcc OUTPUT_energy=-1.90434868 OUTPUT_stress="-0.0025675508845872186 -0.0025675508845872186 -0.0025675508845872186 0.0 0.0 0.0" energy=-204.681767642628 free_energy=-204.680652156173 pbc="T T T"
Li       0.00000000       0.00000000       0.00000000       1.00000000       0.00000000       0.00000000       0.00000000       0.00000000       0.00000000       0.00000000
1
Lattice="-1.8077052143674335 1.8077052143674335 1.8077052143674335 1.8077052143674335 -1.8077052143674335 1.8077052143674335 1.8077052143674335 1.8077052143674335 -1.8077052143674335" Properties=species:S:1:pos:R:3:initial_magmoms:R:1:OUTPUT_forces:R:3:forces:R:3 config_source=A2_W.POSCAR cutoff=-1.0 nneightol=1.2 structure_name=bcc OUTPUT_energy=-1.90434868 OUTPUT_stress="-0.0025675508845872186 -0.0025675508845872186 -0.0025675508845872186 0.0 0.0 0.0" energy=-204.674505598615 free_energy=-204.673383650201 pbc="T T T"
Li       0.00000000       0.00000000       0.00000000       1.00000000       0.00000000       0.00000000       0.00000000       0.00000000       0.00000000       0.00000000
1
Lattice="0.0 1.9935275173839646 1.9935275173839646 1.9935275173839646 0.0 1.9935275173839646 1.9935275173839646 1.9935275173839646 0.0" Properties=species:S:1:pos:R:3:initial_magmoms:R:1:OUTPUT_forces:R:3:forces:R:3 config_source=A1_Cu.POSCAR cutoff=-1.0 nneightol=1.2 structure_name=fcc OUTPUT_energy=-1.90694263 OUTPUT_stress="-0.0015573127004900058 -0.0015573127004900058 -0.0015573127004900058 -0.0 -0.0 -0.0" energy=-204.632841705155 free_energy=-204.631521067141 pbc="T T T"
Li       0.00000000       0.00000000       0.00000000       1.00000000       0.00000000       0.00000000       0.00000000       0.00000000       0.00000000       0.00000000
1
Lattice="0.0 2.026214105879221 2.026214105879221 2.026214105879221 0.0 2.026214105879221 2.026214105879221 2.026214105879221 0.0" Properties=species:S:1:pos:R:3:initial_magmoms:R:1:OUTPUT_forces:R:3:forces:R:3 config_source=A1_Cu.POSCAR cutoff=-1.0 nneightol=1.2 structure_name=fcc OUTPUT_energy=-1.90694263 OUTPUT_stress="-0.0015573127004900058 -0.0015573127004900058 -0.0015573127004900058 -0.0 -0.0 -0.0" energy=-204.655043752029 free_energy=-204.653702024889 pbc="T T T"
Li       0.00000000       0.00000000       0.00000000       1.00000000       0.00000000       0.00000000       0.00000000       0.00000000       0.00000000       0.00000000
1
Lattice="0.0 2.057878815810564 2.057878815810564 2.057878815810564 0.0 2.057878815810564 2.057878815810564 2.057878815810564 0.0" Properties=species:S:1:pos:R:3:initial_magmoms:R:1:OUTPUT_forces:R:3:forces:R:3 config_source=A1_Cu.POSCAR cutoff=-1.0 nneightol=1.2 structure_name=fcc OUTPUT_energy=-1.90694263 OUTPUT_stress="-0.0015573127004900058 -0.0015573127004900058 -0.0015573127004900058 -0.0 -0.0 -0.0" energy=-204.671399417988 free_energy=-204.6700407779 pbc="T T T"
Li       0.00000000       0.00000000       0.00000000       1.00000000       0.00000000       0.00000000       0.00000000       0.00000000       0.00000000       0.00000000
1
Lattice="0.0 2.088597953923389 2.088597953923389 2.088597953923389 0.0 2.088597953923389 2.088597953923389 2.088597953923389 0.0" Properties=species:S:1:pos:R:3:initial_magmoms:R:1:OUTPUT_forces:R:3:forces:R:3 config_source=A1_Cu.POSCAR cutoff=-1.0 nneightol=1.2 structure_name=fcc OUTPUT_energy=-1.90694263 OUTPUT_stress="-0.0015573127004900058 -0.0015573127004900058 -0.0015573127004900058 -0.0 -0.0 -0.0" energy=-204.682699942709 free_energy=-204.681326015982 pbc="T T T"
Li       0.00000000       0.00000000       0.00000000       1.00000000       0.00000000       0.00000000       0.00000000       0.00000000       0.00000000       0.00000000
1
Lattice="0.0 2.118439099249407 2.118439099249407 2.118439099249407 0.0 2.118439099249407 2.118439099249407 2.118439099249407 0.0" Properties=species:S:1:pos:R:3:initial_magmoms:R:1:OUTPUT_forces:R:3:forces:R:3 config_source=A1_Cu.POSCAR cutoff=-1.0 nneightol=1.2 structure_name=fcc OUTPUT_energy=-1.90694263 OUTPUT_stress="-0.0015573127004900058 -0.0015573127004900058 -0.0015573127004900058 -0.0 -0.0 -0.0" energy=-204.689765891881 free_energy=-204.688377434524 pbc="T T T"
Li       0.00000000       0.00000000       0.00000000       1.00000000       0.00000000       0.00000000       0.00000000       0.00000000       0.00000000       0.00000000
1
Lattice="0.0 2.147462419492576 2.147462419492576 2.147462419492576 0.0 2.147462419492576 2.147462419492576 2.147462419492576 0.0" Properties=species:S:1:pos:R:3:initial_magmoms:R:1:OUTPUT_forces:R:3:forces:R:3 config_source=A1_Cu.POSCAR cutoff=-1.0 nneightol=1.2 structure_name=fcc OUTPUT_energy=-1.90694263 OUTPUT_stress="-0.0015573127004900058 -0.0015573127004900058 -0.0015573127004900058 -0.0 -0.0 -0.0" energy=-204.693187116672 free_energy=-204.69178471674 pbc="T T T"
Li       0.00000000       0.00000000       0.00000000       1.00000000       0.00000000       0.00000000       0.00000000       0.00000000       0.00000000       0.00000000
1
Lattice="0.0 2.1757217446593344 2.1757217446593344 2.1757217446593344 0.0 2.1757217446593344 2.1757217446593344 2.1757217446593344 0.0" Properties=species:S:1:pos:R:3:initial_magmoms:R:1:OUTPUT_forces:R:3:forces:R:3 config_source=A1_Cu.POSCAR cutoff=-1.0 nneightol=1.2 structure_name=fcc OUTPUT_energy=-1.90694263 OUTPUT_stress="-0.0015573127004900058 -0.0015573127004900058 -0.0015573127004900058 -0.0 -0.0 -0.0" energy=-204.693543745786 free_energy=-204.692128202563 pbc="T T T"
Li       0.00000000       0.00000000       0.00000000       1.00000000       0.00000000       0.00000000       0.00000000       0.00000000       0.00000000       0.00000000
1
Lattice="0.0 2.203265450234669 2.203265450234669 2.203265450234669 0.0 2.203265450234669 2.203265450234669 2.203265450234669 0.0" Properties=species:S:1:pos:R:3:initial_magmoms:R:1:OUTPUT_forces:R:3:forces:R:3 config_source=A1_Cu.POSCAR cutoff=-1.0 nneightol=1.2 structure_name=fcc OUTPUT_energy=-1.90694263 OUTPUT_stress="-0.0015573127004900058 -0.0015573127004900058 -0.0015573127004900058 -0.0 -0.0 -0.0" energy=-204.691425657846 free_energy=-204.689998042583 pbc="T T T"
Li       0.00000000       0.00000000       0.00000000       1.00000000       0.00000000       0.00000000       0.00000000       0.00000000       0.00000000       0.00000000
1
Lattice="0.0 2.230137189432421 2.230137189432421 2.230137189432421 0.0 2.230137189432421 2.230137189432421 2.230137189432421 0.0" Properties=species:S:1:pos:R:3:initial_magmoms:R:1:OUTPUT_forces:R:3:forces:R:3 config_source=A1_Cu.POSCAR cutoff=-1.0 nneightol=1.2 structure_name=fcc OUTPUT_energy=-1.90694263 OUTPUT_stress="-0.0015573127004900058 -0.0015573127004900058 -0.0015573127004900058 -0.0 -0.0 -0.0" energy=-204.687174085292 free_energy=-204.685735455275 pbc="T T T"
Li       0.00000000       0.00000000       0.00000000       1.00000000       0.00000000       0.00000000       0.00000000       0.00000000       0.00000000       0.00000000
1
Lattice="0.0 2.2563765047360924 2.2563765047360924 2.2563765047360924 0.0 2.2563765047360924 2.2563765047360924 2.2563765047360924 0.0" Properties=species:S:1:pos:R:3:initial_magmoms:R:1:OUTPUT_forces:R:3:forces:R:3 config_source=A1_Cu.POSCAR cutoff=-1.0 nneightol=1.2 structure_name=fcc OUTPUT_energy=-1.90694263 OUTPUT_stress="-0.0015573127004900058 -0.0015573127004900058 -0.0015573127004900058 -0.0 -0.0 -0.0" energy=-204.681043349118 free_energy=-204.679594625998 pbc="T T T"
Li       0.00000000       0.00000000       0.00000000       1.00000000       0.00000000       0.00000000       0.00000000       0.00000000       0.00000000       0.00000000
1
Lattice="0.0 2.2820193420714094 2.2820193420714094 2.2820193420714094 0.0 2.2820193420714094 2.2820193420714094 2.2820193420714094 0.0" Properties=species:S:1:pos:R:3:initial_magmoms:R:1:OUTPUT_forces:R:3:forces:R:3 config_source=A1_Cu.POSCAR cutoff=-1.0 nneightol=1.2 structure_name=fcc OUTPUT_energy=-1.90694263 OUTPUT_stress="-0.0015573127004900058 -0.0015573127004900058 -0.0015573127004900058 -0.0 -0.0 -0.0" energy=-204.673365462721 free_energy=-204.67190749915 pbc="T T T"
Li       0.00000000       0.00000000       0.00000000       1.00000000       0.00000000       0.00000000       0.00000000       0.00000000       0.00000000       0.00000000
