2
Lattice="9.190345890553303 0.0 0.0 0.0 7.3522767124426425 0.0 0.0 0.0 7.3522767124426425" Properties=species:S:1:pos:R:3:initial_magmoms:R:1:OUTPUT_forces:R:3:forces:R:3 structure_name=dimer OUTPUT_energy=-2.77412645 OUTPUT_stress="0.00011850129226401955 0.0003085614866562906 0.0003085614866562906 -0.0 0.0 -0.0" energy=-90487.3890012289 free_energy=-90487.3890012289 pbc="T T T"
Cu      -0.11050318       0.00000000       0.00000000       1.00000000      -0.01452400       0.00000000      -0.00000000      -1.95244509       0.00000000       0.00000001
Cu       1.94857236       0.00000000       0.00000000       0.00000000       0.01452400       0.00000000       0.00000000       1.95244509      -0.00000000      -0.00000001
2
Lattice="9.341034081026736 0.0 0.0 0.0 7.472827264821389 0.0 0.0 0.0 7.472827264821389" Properties=species:S:1:pos:R:3:initial_magmoms:R:1:OUTPUT_forces:R:3:forces:R:3 structure_name=dimer OUTPUT_energy=-2.77412645 OUTPUT_stress="0.00011850129226401955 0.0003085614866562906 0.0003085614866562906 -0.0 0.0 -0.0" energy=-90487.4458728115 free_energy=-90487.4458728115 pbc="T T T"
Cu      -0.11231503       0.00000000       0.00000000       1.00000000      -0.01452400       0.00000000      -0.00000000      -1.41585748       0.00000000      -0.00000000
Cu       1.98052184       0.00000000       0.00000000       0.00000000       0.01452400       0.00000000       0.00000000       1.41585748      -0.00000000       0.00000000
2
Lattice="9.487011316984313 0.0 0.0 0.0 7.58960905358745 0.0 0.0 0.0 7.58960905358745" Properties=species:S:1:pos:R:3:initial_magmoms:R:1:OUTPUT_forces:R:3:forces:R:3 structure_name=dimer OUTPUT_energy=-2.77412645 OUTPUT_stress="0.00011850129226401955 0.0003085614866562906 0.0003085614866562906 -0.0 0.0 -0.0" energy=-90487.4851168234 free_energy=-90487.4851168233 pbc="T T T"
Cu      -0.11407023       0.00000000       0.00000000       1.00000000      -0.01452400       0.00000000      -0.00000000      -0.96633448      -0.00000000       0.00000000
Cu       2.01147250       0.00000000       0.00000000       0.00000000       0.01452400       0.00000000       0.00000000       0.96633448       0.00000000      -0.00000000
2
Lattice="9.628629379566675 0.0 0.0 0.0 7.7029035036533395 0.0 0.0 0.0 7.7029035036533395" Properties=species:S:1:pos:R:3:initial_magmoms:R:1:OUTPUT_forces:R:3:forces:R:3 structure_name=dimer OUTPUT_energy=-2.77412645 OUTPUT_stress="0.00011850129226401955 0.0003085614866562906 0.0003085614866562906 -0.0 0.0 -0.0" energy=-90487.5095975394 free_energy=-90487.5095975394 pbc="T T T"
Cu      -0.11577303       0.00000000       0.00000000       1.00000000      -0.01452400       0.00000000      -0.00000000      -0.58807399       0.00000000      -0.00000000
Cu       2.04149890       0.00000000       0.00000000       0.00000000       0.01452400       0.00000000       0.00000000       0.58807399      -0.00000000       0.00000000
2
Lattice="9.766199814348662 0.0 0.0 0.0 7.812959851478929 0.0 0.0 0.0 7.812959851478929" Properties=species:S:1:pos:R:3:initial_magmoms:R:1:OUTPUT_forces:R:3:forces:R:3 structure_name=dimer OUTPUT_energy=-2.77412645 OUTPUT_stress="0.00011850129226401955 0.0003085614866562906 0.0003085614866562906 -0.0 0.0 -0.0" energy=-90487.5228289242 free_energy=-90487.5228289241 pbc="T T T"
Cu      -0.11742715       0.00000000       0.00000000       1.00000000      -0.01452400       0.00000000      -0.00000000      -0.26792025      -0.00000000       0.00000000
Cu       2.07066711       0.00000000       0.00000000       0.00000000       0.01452400       0.00000000       0.00000000       0.26792025       0.00000000      -0.00000000
2
Lattice="9.9 0.0 0.0 0.0 7.92 0.0 0.0 0.0 7.92" Properties=species:S:1:pos:R:3:initial_magmoms:R:1:OUTPUT_forces:R:3:forces:R:3 structure_name=dimer OUTPUT_energy=-2.77412645 OUTPUT_stress="0.00011850129226401955 0.0003085614866562906 0.0003085614866562906 -0.0 0.0 -0.0" energy=-90487.5269874399 free_energy=-90487.5269874398 pbc="T T T"
Cu      -0.11903594       0.00000000       0.00000000       1.00000000      -0.01452400       0.00000000      -0.00000000       0.00363691      -0.00000001       0.00000000
Cu       2.09903594       0.00000000       0.00000000       0.00000000       0.01452400       0.00000000       0.00000000      -0.00363691       0.00000001      -0.00000000
2
Lattice="10.030278097819757 0.0 0.0 0.0 8.024222478255805 0.0 0.0 0.0 8.024222478255805" Properties=species:S:1:pos:R:3:initial_magmoms:R:1:OUTPUT_forces:R:3:forces:R:3 structure_name=dimer OUTPUT_energy=-2.77412645 OUTPUT_stress="0.00011850129226401955 0.0003085614866562906 0.0003085614866562906 -0.0 0.0 -0.0" energy=-90487.5237842545 free_energy=-90487.5237842544 pbc="T T T"
Cu      -0.12060238       0.00000000       0.00000000       1.00000000      -0.01452400       0.00000000      -0.00000000       0.23397627      -0.00000000       0.00000000
Cu       2.12665800       0.00000000       0.00000000       0.00000000       0.01452400       0.00000000       0.00000000      -0.23397627       0.00000000      -0.00000000
2
Lattice="10.157257123259582 0.0 0.0 0.0 8.125805698607666 0.0 0.0 0.0 8.125805698607666" Properties=species:S:1:pos:R:3:initial_magmoms:R:1:OUTPUT_forces:R:3:forces:R:3 structure_name=dimer OUTPUT_energy=-2.77412645 OUTPUT_stress="0.00011850129226401955 0.0003085614866562906 0.0003085614866562906 -0.0 0.0 -0.0" energy=-90487.5145458199 free_energy=-90487.5145458198 pbc="T T T"
Cu      -0.12212916       0.00000000       0.00000000       1.00000000      -0.01452400       0.00000000      -0.00000000       0.43018368       0.00000000       0.00000000
Cu       2.15358058       0.00000000       0.00000000       0.00000000       0.01452400       0.00000000       0.00000000      -0.43018368      -0.00000000      -0.00000000
2
Lattice="10.281138321665189 0.0 0.0 0.0 8.22491065733215 0.0 0.0 0.0 8.22491065733215" Properties=species:S:1:pos:R:3:initial_magmoms:R:1:OUTPUT_forces:R:3:forces:R:3 structure_name=dimer OUTPUT_energy=-2.77412645 OUTPUT_stress="0.00011850129226401955 0.0003085614866562906 0.0003085614866562906 -0.0 0.0 -0.0" energy=-90487.5004401467 free_energy=-90487.5004401467 pbc="T T T"
Cu      -0.12361868       0.00000000       0.00000000       1.00000000      -0.01452400       0.00000000      -0.00000000       0.59825782      -0.00000000      -0.00000000
Cu       2.17984635       0.00000000       0.00000000       0.00000000       0.01452400       0.00000000       0.00000000      -0.59825782       0.00000000       0.00000000
2
Lattice="10.402103987535947 0.0 0.0 0.0 8.321683190028757 0.0 0.0 0.0 8.321683190028757" Properties=species:S:1:pos:R:3:initial_magmoms:R:1:OUTPUT_forces:R:3:forces:R:3 structure_name=dimer OUTPUT_energy=-2.77412645 OUTPUT_stress="0.00011850129226401955 0.0003085614866562906 0.0003085614866562906 -0.0 0.0 -0.0" energy=-90487.4823871422 free_energy=-90487.4823871421 pbc="T T T"
Cu      -0.12507315       0.00000000       0.00000000       1.00000000      -0.01452400       0.00000000      -0.00000000       0.74203067       0.00000000       0.00000000
Cu       2.20549395       0.00000000       0.00000000       0.00000000       0.01452400       0.00000000       0.00000000      -0.74203067      -0.00000000      -0.00000000
2
Lattice="10.52031983490785 0.0 0.0 0.0 8.41625586792628 0.0 0.0 0.0 8.41625586792628" Properties=species:S:1:pos:R:3:initial_magmoms:R:1:OUTPUT_forces:R:3:forces:R:3 structure_name=dimer OUTPUT_energy=-2.77412645 OUTPUT_stress="0.00011850129226401955 0.0003085614866562906 0.0003085614866562906 -0.0 0.0 -0.0" energy=-90487.467020838 free_energy=-90487.467020838 pbc="T T T"
Cu      -0.12649456       0.00000000       0.00000000       1.00000000      -0.01452400       0.00000000      -0.00000000       0.86915874      -0.00000000      -0.00000000
Cu       2.23055853       0.00000000       0.00000000       0.00000000       0.01452400       0.00000000       0.00000000      -0.86915874       0.00000000       0.00000000
2
Lattice="1.8375131497283905 -3.182666127560126 0.0 1.8375131497283905 3.182666127560126 0.0 0.0 0.0 5.2202078117283826" Properties=species:S:1:pos:R:3:initial_magmoms:R:1:OUTPUT_forces:R:3:forces:R:3 structure_name=AA-graphite OUTPUT_energy=-4.63525109 OUTPUT_stress="-0.001317844719857243 -0.001317844719857243 0.0010239757456832815 -0.0 -0.0 -0.0" energy=-90489.089031148 free_energy=-90489.0877835825 pbc="T T T"
Cu       0.00000000       0.00000000       2.50234391       1.00000000       0.00000000       0.00000000       0.00000000      -0.00000018      -0.00001390       0.00000000
Cu       1.83751314       1.06088871       2.50234391       0.00000000       0.00000000       0.00000000       0.00000000       0.00000018       0.00001390      -0.00000000
2
Lattice="1.8676416709833223 -3.2348502570101494 0.0 1.8676416709833223 3.2348502570101494 0.0 0.0 0.0 5.305800201657166" Properties=species:S:1:pos:R:3:initial_magmoms:R:1:OUTPUT_forces:R:3:forces:R:3 structure_name=AA-graphite OUTPUT_energy=-4.63525109 OUTPUT_stress="-0.001317844719857243 -0.001317844719857243 0.0010239757456832815 -0.0 -0.0 -0.0" energy=-90489.2236232816 free_energy=-90489.2221667198 pbc="T T T"
Cu       0.00000000       0.00000000       2.54337323       1.00000000       0.00000000       0.00000000       0.00000000      -0.00000006      -0.00016872      -0.00000000
Cu       1.86764166       1.07828342       2.54337323       0.00000000       0.00000000       0.00000000       0.00000000       0.00000006       0.00016872       0.00000000
2
Lattice="1.8968282863542159 -3.2854029576168355 0.0 1.8968282863542159 3.2854029576168355 0.0 0.0 0.0 5.388716722597205" Properties=species:S:1:pos:R:3:initial_magmoms:R:1:OUTPUT_forces:R:3:forces:R:3 structure_name=AA-graphite OUTPUT_energy=-4.63525109 OUTPUT_stress="-0.001317844719857243 -0.001317844719857243 0.0010239757456832815 -0.0 -0.0 -0.0" energy=-90489.3163587187 free_energy=-90489.3147702053 pbc="T T T"
Cu       0.00000000       0.00000000       2.58311986       1.00000000       0.00000000       0.00000000       0.00000000      -0.00000016       0.00004748       0.00000001
Cu       1.89682828       1.09513432       2.58311986       0.00000000       0.00000000       0.00000000       0.00000000       0.00000016      -0.00004748      -0.00000001
2
Lattice="1.9251433307859638 -3.334446053078005 0.0 1.9251433307859638 3.334446053078005 0.0 0.0 0.0 5.469157189732852" Properties=species:S:1:pos:R:3:initial_magmoms:R:1:OUTPUT_forces:R:3:forces:R:3 structure_name=AA-graphite OUTPUT_energy=-4.63525109 OUTPUT_stress="-0.001317844719857243 -0.001317844719857243 0.0010239757456832815 -0.0 -0.0 -0.0" energy=-90489.3760933767 free_energy=-90489.3744337901 pbc="T T T"
Cu       0.00000000       0.00000000       2.62167957       1.00000000       0.00000000       0.00000000       0.00000000      -0.00000011      -0.00008817      -0.00000000
Cu       1.92514332       1.11148202       2.62167957       0.00000000       0.00000000       0.00000000       0.00000000       0.00000011       0.00008817       0.00000000
2
Lattice="1.9526490945446044 -3.3820874332990045 0.0 1.9526490945446044 3.3820874332990045 0.0 0.0 0.0 5.547298564047172" Properties=species:S:1:pos:R:3:initial_magmoms:R:1:OUTPUT_forces:R:3:forces:R:3 structure_name=AA-graphite OUTPUT_energy=-4.63525109 OUTPUT_stress="-0.001317844719857243 -0.001317844719857243 0.0010239757456832815 -0.0 -0.0 -0.0" energy=-90489.4096875188 free_energy=-90489.4079776388 pbc="T T T"
Cu       0.00000000       0.00000000       2.65913720       1.00000000       0.00000000       0.00000000       0.00000000      -0.00000013      -0.00007379       0.00000000
Cu       1.95264909       1.12736248       2.65913720       0.00000000       0.00000000       0.00000000       0.00000000       0.00000013       0.00007379      -0.00000000
2
Lattice="1.9794010365822976 -3.4284231560024874 0.0 1.9794010365822976 3.4284231560024874 0.0 0.0 0.0 5.623298399381528" Properties=species:S:1:pos:R:3:initial_magmoms:R:1:OUTPUT_forces:R:3:forces:R:3 structure_name=AA-graphite OUTPUT_energy=-4.63525109 OUTPUT_stress="-0.001317844719857243 -0.001317844719857243 0.0010239757456832815 -0.0 -0.0 -0.0" energy=-90489.4225168471 free_energy=-90489.4207430343 pbc="T T T"
Cu       0.00000000       0.00000000       2.69556826       1.00000000       0.00000000       0.00000000       0.00000000      -0.00000009       0.00010158      -0.00000001
Cu       1.97940103       1.14280772       2.69556826       0.00000000       0.00000000       0.00000000       0.00000000       0.00000009      -0.00010158       0.00000001
2
Lattice="2.005448774144762 -3.4735391607787713 0.0 2.005448774144762 3.4735391607787713 0.0 0.0 0.0 5.697297653820347" Properties=species:S:1:pos:R:3:initial_magmoms:R:1:OUTPUT_forces:R:3:forces:R:3 structure_name=AA-graphite OUTPUT_energy=-4.63525109 OUTPUT_stress="-0.001317844719857243 -0.001317844719857243 0.0010239757456832815 -0.0 -0.0 -0.0" energy=-90489.418883639 free_energy=-90489.4170167961 pbc="T T T"
Cu       0.00000000       0.00000000       2.73104033       1.00000000       0.00000000       0.00000000       0.00000000      -0.00000003      -0.00005441       0.00000000
Cu       2.00544877       1.15784639       2.73104033       0.00000000       0.00000000       0.00000000       0.00000000       0.00000003       0.00005441      -0.00000000
2
Lattice="2.03083689682959 -3.517512679076198 0.0 2.03083689682959 3.517512679076198 0.0 0.0 0.0 5.769423002356791" Properties=species:S:1:pos:R:3:initial_magmoms:R:1:OUTPUT_forces:R:3:forces:R:3 structure_name=AA-graphite OUTPUT_energy=-4.63525109 OUTPUT_stress="-0.001317844719857243 -0.001317844719857243 0.0010239757456832815 -0.0 -0.0 -0.0" energy=-90489.4022497188 free_energy=-90489.4002781528 pbc="T T T"
Cu       0.00000000       0.00000000       2.76561413       1.00000000       0.00000000       0.00000000       0.00000000      -0.00000006       0.00010524      -0.00000002
Cu       2.03083689       1.17250423       2.76561413       0.00000000       0.00000000       0.00000000       0.00000000       0.00000006      -0.00010524       0.00000002
2
Lattice="2.055605641530309 -3.5604134032385333 0.0 2.055605641530309 3.5604134032385333 0.0 0.0 0.0 5.8397887543474685" Properties=species:S:1:pos:R:3:initial_magmoms:R:1:OUTPUT_forces:R:3:forces:R:3 structure_name=AA-graphite OUTPUT_energy=-4.63525109 OUTPUT_stress="-0.001317844719857243 -0.001317844719857243 0.0010239757456832815 -0.0 -0.0 -0.0" energy=-90489.3754090493 free_energy=-90489.3733601694 pbc="T T T"
Cu       0.00000000       0.00000000       2.79934446       1.00000000       0.00000000       0.00000000       0.00000000      -0.00000002       0.00010711      -0.00000000
Cu       2.05560563       1.18680447       2.79934446       0.00000000       0.00000000       0.00000000       0.00000000       0.00000002      -0.00010711       0.00000000
2
Lattice="2.0797914561177273 -3.6023044628297014 0.0 2.0797914561177273 3.6023044628297014 0.0 0.0 0.0 5.908498454879909" Properties=species:S:1:pos:R:3:initial_magmoms:R:1:OUTPUT_forces:R:3:forces:R:3 structure_name=AA-graphite OUTPUT_energy=-4.63525109 OUTPUT_stress="-0.001317844719857243 -0.001317844719857243 0.0010239757456832815 -0.0 -0.0 -0.0" energy=-90489.3405515674 free_energy=-90489.3384787095 pbc="T T T"
Cu       0.00000000       0.00000000       2.83228094       1.00000000       0.00000000       0.00000000       0.00000000      -0.00000009      -0.00006929      -0.00000000
Cu       2.07979145       1.20076816       2.83228094       0.00000000       0.00000000       0.00000000       0.00000000       0.00000009       0.00006929       0.00000000
2
Lattice="2.1034274733731215 -3.6432432455101353 0.0 2.1034274733731215 3.6432432455101353 0.0 0.0 0.0 5.975646231173642" Properties=species:S:1:pos:R:3:initial_magmoms:R:1:OUTPUT_forces:R:3:forces:R:3 structure_name=AA-graphite OUTPUT_energy=-4.63525109 OUTPUT_stress="-0.001317844719857243 -0.001317844719857243 0.0010239757456832815 -0.0 -0.0 -0.0" energy=-90489.2994308068 free_energy=-90489.2973835376 pbc="T T T"
Cu       0.00000000       0.00000000       2.86446871       1.00000000       0.00000000       0.00000000       0.00000000      -0.00000002      -0.00007575       0.00000001
Cu       2.10342747       1.21441442       2.86446871       0.00000000       0.00000000       0.00000000       0.00000000       0.00000002       0.00007575      -0.00000001
2
Lattice="0.0 2.4816949137899633 2.4816949137899633 2.4816949137899633 0.0 2.4816949137899633 2.4816949137899633 2.4816949137899633 0.0" Properties=species:S:1:pos:R:3:initial_magmoms:R:1:OUTPUT_forces:R:3:forces:R:3 config_source=A4_C.POSCAR cutoff=-1.0 nneightol=1.2 structure_name=diamond OUTPUT_energy=-5.40046386 OUTPUT_stress="-0.0018585528969416354 -0.0018585528969416354 -0.0018585528969416354 -0.0 -0.0 0.0" energy=-90489.7718594019 free_energy=-90489.7700378234 pbc="T T T"
Cu       0.62042373       0.62042373       0.62042373       1.00000000       0.00000000       0.00000000       0.00000000      -0.00000102      -0.00000102       0.00000206
Cu       4.34296610       4.34296610       4.34296610       0.00000000       0.00000000       0.00000000       0.00000000       0.00000102       0.00000102      -0.00000206
2
Lattice="0.0 2.52238566910207 2.52238566910207 2.52238566910207 0.0 2.52238566910207 2.52238566910207 2.52238566910207 0.0" Properties=species:S:1:pos:R:3:initial_magmoms:R:1:OUTPUT_forces:R:3:forces:R:3 config_source=A4_C.POSCAR cutoff=-1.0 nneightol=1.2 structure_name=diamond OUTPUT_energy=-5.40046386 OUTPUT_stress="-0.0018585528969416354 -0.0018585528969416354 -0.0018585528969416354 -0.0 -0.0 0.0" energy=-90489.9502180936 free_energy=-90489.9483803674 pbc="T T T"
Cu       0.63059642       0.63059642       0.63059642       1.00000000       0.00000000       0.00000000       0.00000000       0.00000179       0.00000179      -0.00000363
Cu       4.41417492       4.41417492       4.41417492       0.00000000       0.00000000       0.00000000       0.00000000      -0.00000179      -0.00000179       0.00000363
2
Lattice="0.0 2.561804312134582 2.561804312134582 2.561804312134582 0.0 2.561804312134582 2.561804312134582 2.561804312134582 0.0" Properties=species:S:1:pos:R:3:initial_magmoms:R:1:OUTPUT_forces:R:3:forces:R:3 config_source=A4_C.POSCAR cutoff=-1.0 nneightol=1.2 structure_name=diamond OUTPUT_energy=-5.40046386 OUTPUT_stress="-0.0018585528969416354 -0.0018585528969416354 -0.0018585528969416354 -0.0 -0.0 0.0" energy=-90490.0721428558 free_energy=-90490.0703120867 pbc="T T T"
Cu       0.64045108       0.64045108       0.64045108       1.00000000       0.00000000       0.00000000       0.00000000       0.00000048       0.00000047      -0.00000102
Cu       4.48315755       4.48315755       4.48315755       0.00000000       0.00000000       0.00000000       0.00000000      -0.00000048      -0.00000047       0.00000102
2
Lattice="0.0 2.600045835336956 2.600045835336956 2.600045835336956 0.0 2.600045835336956 2.600045835336956 2.600045835336956 0.0" Properties=species:S:1:pos:R:3:initial_magmoms:R:1:OUTPUT_forces:R:3:forces:R:3 config_source=A4_C.POSCAR cutoff=-1.0 nneightol=1.2 structure_name=diamond OUTPUT_energy=-5.40046386 OUTPUT_stress="-0.0018585528969416354 -0.0018585528969416354 -0.0018585528969416354 -0.0 -0.0 0.0" energy=-90490.1497931607 free_energy=-90490.1479360384 pbc="T T T"
Cu       0.65001146       0.65001146       0.65001146       1.00000000       0.00000000       0.00000000       0.00000000       0.00000084       0.00000084      -0.00000170
Cu       4.55008021       4.55008021       4.55008021       0.00000000       0.00000000       0.00000000       0.00000000      -0.00000084      -0.00000084       0.00000170
2
Lattice="0.0 2.6371943662358057 2.6371943662358057 2.6371943662358057 0.0 2.6371943662358057 2.6371943662358057 2.6371943662358057 0.0" Properties=species:S:1:pos:R:3:initial_magmoms:R:1:OUTPUT_forces:R:3:forces:R:3 config_source=A4_C.POSCAR cutoff=-1.0 nneightol=1.2 structure_name=diamond OUTPUT_energy=-5.40046386 OUTPUT_stress="-0.0018585528969416354 -0.0018585528969416354 -0.0018585528969416354 -0.0 -0.0 0.0" energy=-90490.1926055686 free_energy=-90490.1906763912 pbc="T T T"
Cu       0.65929859       0.65929859       0.65929859       1.00000000       0.00000000       0.00000000       0.00000000       0.00000023       0.00000023      -0.00000066
Cu       4.61509014       4.61509014       4.61509014       0.00000000       0.00000000       0.00000000       0.00000000      -0.00000023      -0.00000023       0.00000066
2
Lattice="0.0 2.6733248061723907 2.6733248061723907 2.6733248061723907 0.0 2.6733248061723907 2.6733248061723907 2.6733248061723907 0.0" Properties=species:S:1:pos:R:3:initial_magmoms:R:1:OUTPUT_forces:R:3:forces:R:3 config_source=A4_C.POSCAR cutoff=-1.0 nneightol=1.2 structure_name=diamond OUTPUT_energy=-5.40046386 OUTPUT_stress="-0.0018585528969416354 -0.0018585528969416354 -0.0018585528969416354 -0.0 -0.0 0.0" energy=-90490.2081121654 free_energy=-90490.2061127994 pbc="T T T"
Cu       0.66833120       0.66833120       0.66833120       1.00000000       0.00000000       0.00000000       0.00000000       0.00000118       0.00000118      -0.00000237
Cu       4.67831841       4.67831841       4.67831841       0.00000000       0.00000000       0.00000000       0.00000000      -0.00000118      -0.00000118       0.00000237
2
Lattice="0.0 2.708504166839311 2.708504166839311 2.708504166839311 0.0 2.708504166839311 2.708504166839311 2.708504166839311 0.0" Properties=species:S:1:pos:R:3:initial_magmoms:R:1:OUTPUT_forces:R:3:forces:R:3 config_source=A4_C.POSCAR cutoff=-1.0 nneightol=1.2 structure_name=diamond OUTPUT_energy=-5.40046386 OUTPUT_stress="-0.0018585528969416354 -0.0018585528969416354 -0.0018585528969416354 -0.0 -0.0 0.0" energy=-90490.2022335507 free_energy=-90490.2002031424 pbc="T T T"
Cu       0.67712604       0.67712604       0.67712604       1.00000000       0.00000000       0.00000000       0.00000000      -0.00000010      -0.00000010       0.00000021
Cu       4.73988229       4.73988229       4.73988229       0.00000000       0.00000000       0.00000000       0.00000000       0.00000010       0.00000010      -0.00000021
2
Lattice="0.0 2.7427926697253593 2.7427926697253593 2.7427926697253593 0.0 2.7427926697253593 2.7427926697253593 2.7427926697253593 0.0" Properties=species:S:1:pos:R:3:initial_magmoms:R:1:OUTPUT_forces:R:3:forces:R:3 config_source=A4_C.POSCAR cutoff=-1.0 nneightol=1.2 structure_name=diamond OUTPUT_energy=-5.40046386 OUTPUT_stress="-0.0018585528969416354 -0.0018585528969416354 -0.0018585528969416354 -0.0 -0.0 0.0" energy=-90490.1795385653 free_energy=-90490.1775028534 pbc="T T T"
Cu       0.68569817       0.68569817       0.68569817       1.00000000       0.00000000       0.00000000       0.00000000      -0.00000005      -0.00000005       0.00000013
Cu       4.79988717       4.79988717       4.79988717       0.00000000       0.00000000       0.00000000       0.00000000       0.00000005       0.00000005      -0.00000013
2
Lattice="0.0 2.7762446576764774 2.7762446576764774 2.7762446576764774 0.0 2.7762446576764774 2.7762446576764774 2.7762446576764774 0.0" Properties=species:S:1:pos:R:3:initial_magmoms:R:1:OUTPUT_forces:R:3:forces:R:3 config_source=A4_C.POSCAR cutoff=-1.0 nneightol=1.2 structure_name=diamond OUTPUT_energy=-5.40046386 OUTPUT_stress="-0.0018585528969416354 -0.0018585528969416354 -0.0018585528969416354 -0.0 -0.0 0.0" energy=-90490.1436550531 free_energy=-90490.1416132686 pbc="T T T"
Cu       0.69406116       0.69406116       0.69406116       1.00000000       0.00000000       0.00000000       0.00000000      -0.00000053      -0.00000053       0.00000089
Cu       4.85842815       4.85842815       4.85842815       0.00000000       0.00000000       0.00000000       0.00000000       0.00000053       0.00000053      -0.00000089
2
Lattice="0.0 2.808909356188342 2.808909356188342 2.808909356188342 0.0 2.808909356188342 2.808909356188342 2.808909356188342 0.0" Properties=species:S:1:pos:R:3:initial_magmoms:R:1:OUTPUT_forces:R:3:forces:R:3 config_source=A4_C.POSCAR cutoff=-1.0 nneightol=1.2 structure_name=diamond OUTPUT_energy=-5.40046386 OUTPUT_stress="-0.0018585528969416354 -0.0018585528969416354 -0.0018585528969416354 -0.0 -0.0 0.0" energy=-90490.0975082396 free_energy=-90490.0954598384 pbc="T T T"
Cu       0.70222734       0.70222734       0.70222734       1.00000000       0.00000000       0.00000000       0.00000000       0.00000022       0.00000017      -0.00000034
Cu       4.91559137       4.91559137       4.91559137       0.00000000       0.00000000       0.00000000       0.00000000      -0.00000022      -0.00000017       0.00000034
2
Lattice="0.0 2.840831513487534 2.840831513487534 2.840831513487534 0.0 2.840831513487534 2.840831513487534 2.840831513487534 0.0" Properties=species:S:1:pos:R:3:initial_magmoms:R:1:OUTPUT_forces:R:3:forces:R:3 config_source=A4_C.POSCAR cutoff=-1.0 nneightol=1.2 structure_name=diamond OUTPUT_energy=-5.40046386 OUTPUT_stress="-0.0018585528969416354 -0.0018585528969416354 -0.0018585528969416354 -0.0 -0.0 0.0" energy=-90490.043419317 free_energy=-90490.0413783001 pbc="T T T"
Cu       0.71020788       0.71020788       0.71020788       1.00000000       0.00000000       0.00000000       0.00000000       0.00000004       0.00000004      -0.00000010
Cu       4.97145515       4.97145515       4.97145515       0.00000000       0.00000000       0.00000000       0.00000000      -0.00000004      -0.00000004       0.00000010
2
Lattice="0.0 4.26966497169659 0.0 2.1348324858482948 -2.1348324858482957 1.1647901997189014 2.1348324858482948 2.134832485848295 -1.1647901997189016" Properties=species:S:1:pos:R:3:initial_magmoms:R:1:OUTPUT_forces:R:3:forces:R:3 structure_name=beta-Sn OUTPUT_energy=-6.79777656 OUTPUT_stress="-0.013968385076562466 -0.013968385076562466 0.03409652799247737 -0.0 -0.0 -0.0" energy=-90491.0808528756 free_energy=-90491.0795025874 pbc="T T T"
Cu       0.00000000       3.20224873       0.29119756       1.00000000       0.00000000       0.00000000       0.00000000      -0.00000005      -0.00000037       0.00000034
Cu       2.13483248      -1.06741625       0.87359265       0.00000000       0.00000000       0.00000000       0.00000000       0.00000005       0.00000037      -0.00000034
2
Lattice="0.0 4.339671922052409 0.0 2.169835961026204 -2.169835961026205 1.1838885154479368 2.169835961026204 2.1698359610262044 -1.183888515447937" Properties=species:S:1:pos:R:3:initial_magmoms:R:1:OUTPUT_forces:R:3:forces:R:3 structure_name=beta-Sn OUTPUT_energy=-6.79777656 OUTPUT_stress="-0.013968385076562466 -0.013968385076562466 0.03409652799247737 -0.0 -0.0 -0.0" energy=-90491.3186730773 free_energy=-90491.3173088701 pbc="T T T"
Cu       0.00000000       3.25475395       0.29597214       1.00000000       0.00000000       0.00000000       0.00000000      -0.00000005      -0.00000021       0.00000025
Cu       2.16983596      -1.08491799       0.88791639       0.00000000       0.00000000       0.00000000       0.00000000       0.00000005       0.00000021      -0.00000025
2
Lattice="0.0 4.4074902499429625 0.0 2.203745124971481 -2.2037451249714817 1.2023897618482726 2.203745124971481 2.2037451249714812 -1.2023897618482728" Properties=species:S:1:pos:R:3:initial_magmoms:R:1:OUTPUT_forces:R:3:forces:R:3 structure_name=beta-Sn OUTPUT_energy=-6.79777656 OUTPUT_stress="-0.013968385076562466 -0.013968385076562466 0.03409652799247737 -0.0 -0.0 -0.0" energy=-90491.478039631 free_energy=-90491.4766717773 pbc="T T T"
Cu       0.00000000       3.30561769       0.30059745       1.00000000       0.00000000       0.00000000       0.00000000      -0.00000001      -0.00000012       0.00001604
Cu       2.20374512      -1.10187257       0.90179233       0.00000000       0.00000000       0.00000000       0.00000000       0.00000001       0.00000012      -0.00001604
2
Lattice="0.0 4.473283386389435 0.0 2.236641693194717 -2.2366416931947177 1.2203385238822098 2.236641693194717 2.2366416931947173 -1.22033852388221" Properties=species:S:1:pos:R:3:initial_magmoms:R:1:OUTPUT_forces:R:3:forces:R:3 structure_name=beta-Sn OUTPUT_energy=-6.79777656 OUTPUT_stress="-0.013968385076562466 -0.013968385076562466 0.03409652799247737 -0.0 -0.0 -0.0" energy=-90491.576086733 free_energy=-90491.5747218481 pbc="T T T"
Cu       0.00000000       3.35496255       0.30508464       1.00000000       0.00000000       0.00000000       0.00000000      -0.00000006      -0.00000018       0.00001348
Cu       2.23664169      -1.11832086       0.91525390       0.00000000       0.00000000       0.00000000       0.00000000       0.00000006       0.00000018      -0.00001348
2
Lattice="0.0 4.537196069712212 0.0 2.2685980348561054 -2.2685980348561063 1.2377742870312156 2.2685980348561054 2.268598034856106 -1.2377742870312158" Properties=species:S:1:pos:R:3:initial_magmoms:R:1:OUTPUT_forces:R:3:forces:R:3 structure_name=beta-Sn OUTPUT_energy=-6.79777656 OUTPUT_stress="-0.013968385076562466 -0.013968385076562466 0.03409652799247737 -0.0 -0.0 -0.0" energy=-90491.6260445841 free_energy=-90491.624674763 pbc="T T T"
Cu       0.00000000       3.40289706       0.30944358       1.00000000       0.00000000       0.00000000       0.00000000       0.00000003       0.00000022       0.00001116
Cu       2.26859803      -1.13429903       0.92833072       0.00000000       0.00000000       0.00000000       0.00000000      -0.00000003      -0.00000022      -0.00001116
2
Lattice="0.0 4.599357164918567 0.0 2.299678582459283 -2.299678582459284 1.2547322064417836 2.299678582459283 2.2996785824592836 -1.2547322064417838" Properties=species:S:1:pos:R:3:initial_magmoms:R:1:OUTPUT_forces:R:3:forces:R:3 structure_name=beta-Sn OUTPUT_energy=-6.79777656 OUTPUT_stress="-0.013968385076562466 -0.013968385076562466 0.03409652799247737 -0.0 -0.0 -0.0" energy=-90491.6382278557 free_energy=-90491.6368315161 pbc="T T T"
Cu       0.00000000       3.44951788       0.31368306       1.00000000       0.00000000       0.00000000       0.00000000       0.00000006       0.00000019       0.00000901
Cu       2.29967858      -1.14983930       0.94104916       0.00000000       0.00000000       0.00000000       0.00000000      -0.00000006      -0.00000019      -0.00000901
2
Lattice="0.0 4.659881963164957 0.0 2.329940981582478 -2.329940981582479 1.2712437342325333 2.329940981582478 2.3299409815824785 -1.2712437342325336" Properties=species:S:1:pos:R:3:initial_magmoms:R:1:OUTPUT_forces:R:3:forces:R:3 structure_name=beta-Sn OUTPUT_energy=-6.79777656 OUTPUT_stress="-0.013968385076562466 -0.013968385076562466 0.03409652799247737 -0.0 -0.0 -0.0" energy=-90491.6207462707 free_energy=-90491.6192890685 pbc="T T T"
Cu       0.00000000       3.49491148       0.31781094       1.00000000       0.00000000       0.00000000       0.00000000      -0.00000002      -0.00000015       0.00000715
Cu       2.32994098      -1.16497050       0.95343281       0.00000000       0.00000000       0.00000000       0.00000000       0.00000002       0.00000015      -0.00000715
2
Lattice="0.0 4.718874073311526 0.0 2.3594370366557627 -2.3594370366557635 1.287337135521618 2.3594370366557627 2.359437036655763 -1.2873371355216183" Properties=species:S:1:pos:R:3:initial_magmoms:R:1:OUTPUT_forces:R:3:forces:R:3 structure_name=beta-Sn OUTPUT_energy=-6.79777656 OUTPUT_stress="-0.013968385076562466 -0.013968385076562466 0.03409652799247737 -0.0 -0.0 -0.0" energy=-90491.5800501258 free_energy=-90491.578515099 pbc="T T T"
Cu       0.00000000       3.53915556       0.32183429       1.00000000       0.00000000       0.00000000       0.00000000      -0.00000004      -0.00000005       0.00001169
Cu       2.35943703      -1.17971853       0.96550286       0.00000000       0.00000000       0.00000000       0.00000000       0.00000004       0.00000005      -0.00001169
2
Lattice="0.0 4.776426990229256 0.0 2.3882134951146274 -2.3882134951146283 1.303037916270317 2.3882134951146274 2.388213495114628 -1.3030379162703172" Properties=species:S:1:pos:R:3:initial_magmoms:R:1:OUTPUT_forces:R:3:forces:R:3 structure_name=beta-Sn OUTPUT_energy=-6.79777656 OUTPUT_stress="-0.013968385076562466 -0.013968385076562466 0.03409652799247737 -0.0 -0.0 -0.0" energy=-90491.5212805576 free_energy=-90491.5196863358 pbc="T T T"
Cu       0.00000000       3.58232025       0.32575949       1.00000000       0.00000000       0.00000000       0.00000000      -0.00000003       0.00000016       0.00000907
Cu       2.38821349      -1.19410676       0.97727844       0.00000000       0.00000000       0.00000000       0.00000000       0.00000003      -0.00000016      -0.00000907
2
Lattice="0.0 4.8326254045759045 0.0 2.4163127022879514 -2.4163127022879527 1.3183691805977629 2.4163127022879514 2.4163127022879523 -1.318369180597763" Properties=species:S:1:pos:R:3:initial_magmoms:R:1:OUTPUT_forces:R:3:forces:R:3 structure_name=beta-Sn OUTPUT_energy=-6.79777656 OUTPUT_stress="-0.013968385076562466 -0.013968385076562466 0.03409652799247737 -0.0 -0.0 -0.0" energy=-90491.4485091863 free_energy=-90491.4468881639 pbc="T T T"
Cu       0.00000000       3.62446906       0.32959230       1.00000000       0.00000000       0.00000000       0.00000000       0.00000006       0.00000043      -0.00000110
Cu       2.41631270      -1.20815636       0.98877689       0.00000000       0.00000000       0.00000000       0.00000000      -0.00000006      -0.00000043       0.00000110
2
Lattice="0.0 4.887546304032155 0.0 2.4437731520160773 -2.443773152016078 1.3333519312047664 2.4437731520160773 2.4437731520160777 -1.3333519312047666" Properties=species:S:1:pos:R:3:initial_magmoms:R:1:OUTPUT_forces:R:3:forces:R:3 structure_name=beta-Sn OUTPUT_energy=-6.79777656 OUTPUT_stress="-0.013968385076562466 -0.013968385076562466 0.03409652799247737 -0.0 -0.0 -0.0" energy=-90491.3649522258 free_energy=-90491.3633263568 pbc="T T T"
Cu       0.00000000       3.66565973       0.33333799       1.00000000       0.00000000       0.00000000       0.00000000      -0.00000003      -0.00000008      -0.00000135
Cu       2.44377315      -1.22188659       1.00001395       0.00000000       0.00000000       0.00000000       0.00000000       0.00000003       0.00000008       0.00000135
1
Lattice="-1.3405205959958806 1.3405205959958806 1.3405205959958806 1.3405205959958806 -1.3405205959958806 1.3405205959958806 1.3405205959958806 1.3405205959958806 -1.3405205959958806" Properties=species:S:1:pos:R:3:initial_magmoms:R:1:OUTPUT_forces:R:3:forces:R:3 config_source=A2_W.POSCAR cutoff=-1.0 nneightol=1.2 structure_name=bcc OUTPUT_energy=-3.68780268 OUTPUT_stress="0.0008057101715511439 0.0008057101715511439 0.0008057101715511439 0.0 -0.0 -0.0" energy=-45245.8006173555 free_energy=-45245.7997757778 pbc="T T T"
Cu       0.00000000       0.00000000       0.00000000       1.00000000       0.00000000       0.00000000       0.00000000       0.00000000       0.00000000       0.00000000
1
Lattice="-1.3625002500054888 1.3625002500054888 1.3625002500054888 1.3625002500054888 -1.3625002500054888 1.3625002500054888 1.3625002500054888 1.3625002500054888 -1.3625002500054888" Properties=species:S:1:pos:R:3:initial_magmoms:R:1:OUTPUT_forces:R:3:forces:R:3 config_source=A2_W.POSCAR cutoff=-1.0 nneightol=1.2 structure_name=bcc OUTPUT_energy=-3.68780268 OUTPUT_stress="0.0008057101715511439 0.0008057101715511439 0.0008057101715511439 0.0 -0.0 -0.0" energy=-45245.9343300218 free_energy=-45245.9333787665 pbc="T T T"
Cu       0.00000000       0.00000000       0.00000000       1.00000000       0.00000000       0.00000000       0.00000000       0.00000000       0.00000000       0.00000000
1
Lattice="-1.3837927556062657 1.3837927556062657 1.3837927556062657 1.3837927556062657 -1.3837927556062657 1.3837927556062657 1.3837927556062657 1.3837927556062657 -1.3837927556062657" Properties=species:S:1:pos:R:3:initial_magmoms:R:1:OUTPUT_forces:R:3:forces:R:3 config_source=A2_W.POSCAR cutoff=-1.0 nneightol=1.2 structure_name=bcc OUTPUT_energy=-3.68780268 OUTPUT_stress="0.0008057101715511439 0.0008057101715511439 0.0008057101715511439 0.0 -0.0 -0.0" energy=-45246.0241944958 free_energy=-45246.0231509766 pbc="T T T"
Cu       0.00000000       0.00000000       0.00000000       1.00000000       0.00000000       0.00000000       0.00000000       0.00000000       0.00000000       0.00000000
1
Lattice="-1.4044494242363144 1.4044494242363144 1.4044494242363144 1.4044494242363144 -1.4044494242363144 1.4044494242363144 1.4044494242363144 1.4044494242363144 -1.4044494242363144" Properties=species:S:1:pos:R:3:initial_magmoms:R:1:OUTPUT_forces:R:3:forces:R:3 config_source=A2_W.POSCAR cutoff=-1.0 nneightol=1.2 structure_name=bcc OUTPUT_energy=-3.68780268 OUTPUT_stress="0.0008057101715511439 0.0008057101715511439 0.0008057101715511439 0.0 -0.0 -0.0" energy=-45246.079875081 free_energy=-45246.0787843809 pbc="T T T"
Cu       0.00000000       0.00000000       0.00000000       1.00000000       0.00000000       0.00000000       0.00000000       0.00000000       0.00000000       0.00000000
1
Lattice="-1.4245156985008034 1.4245156985008034 1.4245156985008034 1.4245156985008034 -1.4245156985008034 1.4245156985008034 1.4245156985008034 1.4245156985008034 -1.4245156985008034" Properties=species:S:1:pos:R:3:initial_magmoms:R:1:OUTPUT_forces:R:3:forces:R:3 config_source=A2_W.POSCAR cutoff=-1.0 nneightol=1.2 structure_name=bcc OUTPUT_energy=-3.68780268 OUTPUT_stress="0.0008057101715511439 0.0008057101715511439 0.0008057101715511439 0.0 -0.0 -0.0" energy=-45246.1087179964 free_energy=-45246.1075673487 pbc="T T T"
Cu       0.00000000       0.00000000       0.00000000       1.00000000       0.00000000       0.00000000       0.00000000       0.00000000       0.00000000       0.00000000
1
Lattice="-1.4440320373578703 1.4440320373578703 1.4440320373578703 1.4440320373578703 -1.4440320373578703 1.4440320373578703 1.4440320373578703 1.4440320373578703 -1.4440320373578703" Properties=species:S:1:pos:R:3:initial_magmoms:R:1:OUTPUT_forces:R:3:forces:R:3 config_source=A2_W.POSCAR cutoff=-1.0 nneightol=1.2 structure_name=bcc OUTPUT_energy=-3.68780268 OUTPUT_stress="0.0008057101715511439 0.0008057101715511439 0.0008057101715511439 0.0 -0.0 -0.0" energy=-45246.1164749983 free_energy=-45246.1152165074 pbc="T T T"
Cu       0.00000000       0.00000000       0.00000000       1.00000000       0.00000000       0.00000000       0.00000000       0.00000000       0.00000000       0.00000000
1
Lattice="-1.463034638066736 1.463034638066736 1.463034638066736 1.463034638066736 -1.463034638066736 1.463034638066736 1.463034638066736 1.463034638066736 -1.463034638066736" Properties=species:S:1:pos:R:3:initial_magmoms:R:1:OUTPUT_forces:R:3:forces:R:3 config_source=A2_W.POSCAR cutoff=-1.0 nneightol=1.2 structure_name=bcc OUTPUT_energy=-3.68780268 OUTPUT_stress="0.0008057101715511439 0.0008057101715511439 0.0008057101715511439 0.0 -0.0 -0.0" energy=-45246.1077865027 free_energy=-45246.1064306749 pbc="T T T"
Cu       0.00000000       0.00000000       0.00000000       1.00000000       0.00000000       0.00000000       0.00000000       0.00000000       0.00000000       0.00000000
1
Lattice="-1.4815560300675026 1.4815560300675026 1.4815560300675026 1.4815560300675026 -1.4815560300675026 1.4815560300675026 1.4815560300675026 1.4815560300675026 -1.4815560300675026" Properties=species:S:1:pos:R:3:initial_magmoms:R:1:OUTPUT_forces:R:3:forces:R:3 config_source=A2_W.POSCAR cutoff=-1.0 nneightol=1.2 structure_name=bcc OUTPUT_energy=-3.68780268 OUTPUT_stress="0.0008057101715511439 0.0008057101715511439 0.0008057101715511439 0.0 -0.0 -0.0" energy=-45246.0862765046 free_energy=-45246.0848688903 pbc="T T T"
Cu       0.00000000       0.00000000       0.00000000       1.00000000       0.00000000       0.00000000       0.00000000       0.00000000       0.00000000       0.00000000
1
Lattice="-1.4996255673729553 1.4996255673729553 1.4996255673729553 1.4996255673729553 -1.4996255673729553 1.4996255673729553 1.4996255673729553 1.4996255673729553 -1.4996255673729553" Properties=species:S:1:pos:R:3:initial_magmoms:R:1:OUTPUT_forces:R:3:forces:R:3 config_source=A2_W.POSCAR cutoff=-1.0 nneightol=1.2 structure_name=bcc OUTPUT_energy=-3.68780268 OUTPUT_stress="0.0008057101715511439 0.0008057101715511439 0.0008057101715511439 0.0 -0.0 -0.0" energy=-45246.0547337264 free_energy=-45246.0532917073 pbc="T T T"
Cu       0.00000000       0.00000000       0.00000000       1.00000000       0.00000000       0.00000000       0.00000000       0.00000000       0.00000000       0.00000000
1
Lattice="-1.517269839790905 1.517269839790905 1.517269839790905 1.517269839790905 -1.517269839790905 1.517269839790905 1.517269839790905 1.517269839790905 -1.517269839790905" Properties=species:S:1:pos:R:3:initial_magmoms:R:1:OUTPUT_forces:R:3:forces:R:3 config_source=A2_W.POSCAR cutoff=-1.0 nneightol=1.2 structure_name=bcc OUTPUT_energy=-3.68780268 OUTPUT_stress="0.0008057101715511439 0.0008057101715511439 0.0008057101715511439 0.0 -0.0 -0.0" energy=-45246.0153898216 free_energy=-45246.0139173336 pbc="T T T"
Cu       0.00000000       0.00000000       0.00000000       1.00000000       0.00000000       0.00000000       0.00000000       0.00000000       0.00000000       0.00000000
1
Lattice="-1.5345130186725653 1.5345130186725653 1.5345130186725653 1.5345130186725653 -1.5345130186725653 1.5345130186725653 1.5345130186725653 1.5345130186725653 -1.5345130186725653" Properties=species:S:1:pos:R:3:initial_magmoms:R:1:OUTPUT_forces:R:3:forces:R:3 config_source=A2_W.POSCAR cutoff=-1.0 nneightol=1.2 structure_name=bcc OUTPUT_energy=-3.68780268 OUTPUT_stress="0.0008057101715511439 0.0008057101715511439 0.0008057101715511439 0.0 -0.0 -0.0" energy=-45245.9700650283 free_energy=-45245.9685816725 pbc="T T T"
Cu       0.00000000       0.00000000       0.00000000       1.00000000       0.00000000       0.00000000       0.00000000       0.00000000       0.00000000       0.00000000
1
Lattice="0.0 1.6879351365285984 1.6879351365285984 1.6879351365285984 0.0 1.6879351365285984 1.6879351365285984 1.6879351365285984 0.0" Properties=species:S:1:pos:R:3:initial_magmoms:R:1:OUTPUT_forces:R:3:forces:R:3 config_source=A1_Cu.POSCAR cutoff=-1.0 nneightol=1.2 structure_name=fcc OUTPUT_energy=-3.72850951 OUTPUT_stress="0.003122964057172192 0.003122964057172192 0.003122964057172192 -0.0 0.0 0.0" energy=-45245.8411778393 free_energy=-45245.8404126846 pbc="T T T"
Cu       0.00000000       0.00000000       0.00000000       1.00000000       0.00000000       0.00000000       0.00000000       0.00000000       0.00000000       0.00000000
1
Lattice="0.0 1.7156111233074496 1.7156111233074496 1.7156111233074496 0.0 1.7156111233074496 1.7156111233074496 1.7156111233074496 0.0" Properties=species:S:1:pos:R:3:initial_magmoms:R:1:OUTPUT_forces:R:3:forces:R:3 config_source=A1_Cu.POSCAR cutoff=-1.0 nneightol=1.2 structure_name=fcc OUTPUT_energy=-3.72850951 OUTPUT_stress="0.003122964057172192 0.003122964057172192 0.003122964057172192 -0.0 0.0 0.0" energy=-45245.9745527462 free_energy=-45245.973797525 pbc="T T T"
Cu       0.00000000       0.00000000       0.00000000       1.00000000       0.00000000       0.00000000       0.00000000       0.00000000       0.00000000       0.00000000
1
Lattice="0.0 1.7424218776186005 1.7424218776186005 1.7424218776186005 0.0 1.7424218776186005 1.7424218776186005 1.7424218776186005 0.0" Properties=species:S:1:pos:R:3:initial_magmoms:R:1:OUTPUT_forces:R:3:forces:R:3 config_source=A1_Cu.POSCAR cutoff=-1.0 nneightol=1.2 structure_name=fcc OUTPUT_energy=-3.72850951 OUTPUT_stress="0.003122964057172192 0.003122964057172192 0.003122964057172192 -0.0 0.0 0.0" energy=-45246.0640700911 free_energy=-45246.0633508725 pbc="T T T"
Cu       0.00000000       0.00000000       0.00000000       1.00000000       0.00000000       0.00000000       0.00000000       0.00000000       0.00000000       0.00000000
1
Lattice="0.0 1.7684320089723706 1.7684320089723706 1.7684320089723706 0.0 1.7684320089723706 1.7684320089723706 1.7684320089723706 0.0" Properties=species:S:1:pos:R:3:initial_magmoms:R:1:OUTPUT_forces:R:3:forces:R:3 config_source=A1_Cu.POSCAR cutoff=-1.0 nneightol=1.2 structure_name=fcc OUTPUT_energy=-3.72850951 OUTPUT_stress="0.003122964057172192 0.003122964057172192 0.003122964057172192 -0.0 0.0 0.0" energy=-45246.1193126207 free_energy=-45246.1186456149 pbc="T T T"
Cu       0.00000000       0.00000000       0.00000000       1.00000000       0.00000000       0.00000000       0.00000000       0.00000000       0.00000000       0.00000000
1
Lattice="0.0 1.7936987370565356 1.7936987370565356 1.7936987370565356 0.0 1.7936987370565356 1.7936987370565356 1.7936987370565356 0.0" Properties=species:S:1:pos:R:3:initial_magmoms:R:1:OUTPUT_forces:R:3:forces:R:3 config_source=A1_Cu.POSCAR cutoff=-1.0 nneightol=1.2 structure_name=fcc OUTPUT_energy=-3.72850951 OUTPUT_stress="0.003122964057172192 0.003122964057172192 0.003122964057172192 -0.0 0.0 0.0" energy=-45246.1476810331 free_energy=-45246.1470703691 pbc="T T T"
Cu       0.00000000       0.00000000       0.00000000       1.00000000       0.00000000       0.00000000       0.00000000       0.00000000       0.00000000       0.00000000
1
Lattice="0.0 1.818273006330458 1.818273006330458 1.818273006330458 0.0 1.818273006330458 1.818273006330458 1.818273006330458 0.0" Properties=species:S:1:pos:R:3:initial_magmoms:R:1:OUTPUT_forces:R:3:forces:R:3 config_source=A1_Cu.POSCAR cutoff=-1.0 nneightol=1.2 structure_name=fcc OUTPUT_energy=-3.72850951 OUTPUT_stress="0.003122964057172192 0.003122964057172192 0.003122964057172192 -0.0 0.0 0.0" energy=-45246.1549248882 free_energy=-45246.1543592513 pbc="T T T"
Cu       0.00000000       0.00000000       0.00000000       1.00000000       0.00000000       0.00000000       0.00000000       0.00000000       0.00000000       0.00000000
1
Lattice="0.0 1.8422003950760886 1.8422003950760886 1.8422003950760886 0.0 1.8422003950760886 1.8422003950760886 1.8422003950760886 0.0" Properties=species:S:1:pos:R:3:initial_magmoms:R:1:OUTPUT_forces:R:3:forces:R:3 config_source=A1_Cu.POSCAR cutoff=-1.0 nneightol=1.2 structure_name=fcc OUTPUT_energy=-3.72850951 OUTPUT_stress="0.003122964057172192 0.003122964057172192 0.003122964057172192 -0.0 0.0 0.0" energy=-45246.1455428115 free_energy=-45246.1449948453 pbc="T T T"
Cu       0.00000000       0.00000000       0.00000000       1.00000000       0.00000000       0.00000000       0.00000000       0.00000000       0.00000000       0.00000000
1
Lattice="0.0 1.8655218631899655 1.8655218631899655 1.8655218631899655 0.0 1.8655218631899655 1.8655218631899655 1.8655218631899655 0.0" Properties=species:S:1:pos:R:3:initial_magmoms:R:1:OUTPUT_forces:R:3:forces:R:3 config_source=A1_Cu.POSCAR cutoff=-1.0 nneightol=1.2 structure_name=fcc OUTPUT_energy=-3.72850951 OUTPUT_stress="0.003122964057172192 0.003122964057172192 0.003122964057172192 -0.0 0.0 0.0" energy=-45246.1230922688 free_energy=-45246.1225302135 pbc="T T T"
Cu       0.00000000       0.00000000       0.00000000       1.00000000       0.00000000       0.00000000       0.00000000       0.00000000       0.00000000       0.00000000
1
Lattice="0.0 1.888274372185196 1.888274372185196 1.888274372185196 0.0 1.888274372185196 1.888274372185196 1.888274372185196 0.0" Properties=species:S:1:pos:R:3:initial_magmoms:R:1:OUTPUT_forces:R:3:forces:R:3 config_source=A1_Cu.POSCAR cutoff=-1.0 nneightol=1.2 structure_name=fcc OUTPUT_energy=-3.72850951 OUTPUT_stress="0.003122964057172192 0.003122964057172192 0.003122964057172192 -0.0 0.0 0.0" energy=-45246.090446103 free_energy=-45246.0898524231 pbc="T T T"
Cu       0.00000000       0.00000000       0.00000000       1.00000000       0.00000000       0.00000000       0.00000000       0.00000000       0.00000000       0.00000000
1
Lattice="0.0 1.9104914029877806 1.9104914029877806 1.9104914029877806 0.0 1.9104914029877806 1.9104914029877806 1.9104914029877806 0.0" Properties=species:S:1:pos:R:3:initial_magmoms:R:1:OUTPUT_forces:R:3:forces:R:3 config_source=A1_Cu.POSCAR cutoff=-1.0 nneightol=1.2 structure_name=fcc OUTPUT_energy=-3.72850951 OUTPUT_stress="0.003122964057172192 0.003122964057172192 0.003122964057172192 -0.0 0.0 0.0" energy=-45246.0499195479 free_energy=-45246.0492943015 pbc="T T T"
Cu       0.00000000       0.00000000       0.00000000       1.00000000       0.00000000       0.00000000       0.00000000       0.00000000       0.00000000       0.00000000
1
Lattice="0.0 1.9322033912904892 1.9322033912904892 1.9322033912904892 0.0 1.9322033912904892 1.9322033912904892 1.9322033912904892 0.0" Properties=species:S:1:pos:R:3:initial_magmoms:R:1:OUTPUT_forces:R:3:forces:R:3 config_source=A1_Cu.POSCAR cutoff=-1.0 nneightol=1.2 structure_name=fcc OUTPUT_energy=-3.72850951 OUTPUT_stress="0.003122964057172192 0.003122964057172192 0.003122964057172192 -0.0 0.0 0.0" energy=-45246.0033672747 free_energy=-45246.0027239417 pbc="T T T"
Cu       0.00000000       0.00000000       0.00000000       1.00000000       0.00000000       0.00000000       0.00000000       0.00000000       0.00000000       0.00000000
