4
Lattice="2.3323315500112174 0.0 0.0 -1.1661657750056087 2.0198588614146384 0.0 0.0 0.0 7.1547910323389186" Properties=species:S:1:pos:R:3:forces:R:3 energy=-4336.99498698775 free_energy=-4336.99498698774 pbc="T T T"
B       -0.00000117       1.34657325       1.78869776       0.00017054       0.00644653       0.00000039
B        1.16616694       0.67328561       5.36609327      -0.00017054      -0.00644653      -0.00000039
N       -0.00000117       1.34657325       5.36609327       0.00017052       0.00022460      -0.00000060
N        1.16616694       0.67328561       1.78869776      -0.00017052      -0.00022460       0.00000060
4
Lattice="2.3705732903157415 0.0 0.0 -1.1852866451578707 2.0529771880220364 0.0 0.0 0.0 7.272103539040861" Properties=species:S:1:pos:R:3:forces:R:3 energy=-4337.6105532999 free_energy=-4337.6105532999 pbc="T T T"
B       -0.00000119       1.36865214       1.81802588       0.00015198       0.00550966      -0.00000094
B        1.18528783       0.68432504       5.45407765      -0.00015198      -0.00550966       0.00000094
N       -0.00000119       1.36865214       5.45407765       0.00015387       0.00078535       0.00000205
N        1.18528783       0.68432504       1.81802588      -0.00015387      -0.00078535      -0.00000205
4
Lattice="2.407619481728107 0.0 0.0 -1.2038097408640536 2.085060138666669 0.0 0.0 0.0 7.385748512928999" Properties=species:S:1:pos:R:3:forces:R:3 energy=-4338.04465091435 free_energy=-4338.04465091434 pbc="T T T"
B       -0.00000121       1.39004079       1.84643713       0.00013863       0.00161095       0.00000020
B        1.20381095       0.69501935       5.53931138      -0.00013863      -0.00161095      -0.00000020
N       -0.00000121       1.39004079       5.53931138       0.00013946       0.00074244      -0.00000041
N        1.20381095       0.69501935       1.84643713      -0.00013946      -0.00074243       0.00000041
4
Lattice="2.443559399479388 0.0 0.0 -1.221779699739694 2.1161850279852947 0.0 0.0 0.0 7.495999819707671" Properties=species:S:1:pos:R:3:forces:R:3 energy=-4338.3283711197 free_energy=-4338.3283711197 pbc="T T T"
B       -0.00000123       1.41079073       1.87399995       0.00012768      -0.00117796      -0.00001666
B        1.22178093       0.70539430       5.62199986      -0.00012768       0.00117796       0.00001666
N       -0.00000123       1.41079073       5.62199986       0.00012610       0.00003266      -0.00040559
N        1.22178093       0.70539430       1.87399995      -0.00012610      -0.00003266       0.00040559
4
Lattice="2.478472107794382 0.0 0.0 -1.239236053897191 2.1464203276216978 0.0 0.0 0.0 7.603100001225852" Properties=species:S:1:pos:R:3:forces:R:3 energy=-4338.48593571065 free_energy=-4338.48593571065 pbc="T T T"
B       -0.00000124       1.43094760       1.90077500       0.00011608      -0.00050178       0.00000028
B        1.23923730       0.71547273       5.70232500      -0.00011608       0.00050178      -0.00000028
N       -0.00000124       1.43094760       5.70232500       0.00011457      -0.00099973      -0.00000059
N        1.23923730       0.71547273       1.90077500      -0.00011457       0.00099973       0.00000059
4
Lattice="2.512428 0.0 0.0 -1.256214 2.175827 0.0 0.0 0.0 7.707265" Properties=species:S:1:pos:R:3:forces:R:3 energy=-4338.53798765397 free_energy=-4338.53798765397 pbc="T T T"
B       -0.00000126       1.45055206       1.92681625       0.00010415       0.00163301      -0.00000030
B        1.25621526       0.72527494       5.78044875      -0.00010415      -0.00163301       0.00000039
N       -0.00000126       1.45055206       5.78044875       0.00010342      -0.00152050       0.00000265
N        1.25621526       0.72527494       1.92681625      -0.00010342       0.00152050      -0.00000274
4
Lattice="2.5454900546211205 0.0 0.0 -1.2727450273105603 2.204459586135845 0.0 0.0 0.0 7.80868801248412" Properties=species:S:1:pos:R:3:forces:R:3 energy=-4338.5024915777 free_energy=-4338.5024915777 pbc="T T T"
B       -0.00000128       1.46964046       1.95217200       0.00009310       0.00291931      -0.00000002
B        1.27274630       0.73481913       5.85651601      -0.00009310      -0.00291931       0.00000002
N       -0.00000128       1.46964046       5.85651601       0.00009425      -0.00142819       0.00000002
N        1.27274630       0.73481913       1.95217200      -0.00009425       0.00142819      -0.00000002
4
Lattice="2.5777148686542244 0.0 0.0 -1.2888574343271122 2.232367100477831 0.0 0.0 0.0 7.9075426587979045" Properties=species:S:1:pos:R:3:forces:R:3 energy=-4338.39463597984 free_energy=-4338.39463597984 pbc="T T T"
B       -0.00000129       1.48824548       1.97688566       0.00008416       0.00233851      -0.00000003
B        1.28885873       0.74412162       5.93065699      -0.00008416      -0.00233851       0.00000003
N       -0.00000129       1.48824548       5.93065699       0.00008611      -0.00080869       0.00000006
N        1.28885873       0.74412162       1.97688566      -0.00008611       0.00080869      -0.00000006
4
Lattice="2.6091535142651137 0.0 0.0 -1.3045767571325568 2.259593772829677 0.0 0.0 0.0 8.00398561078069" Properties=species:S:1:pos:R:3:forces:R:3 energy=-4338.22680236745 free_energy=-4338.22680236745 pbc="T T T"
B       -0.00000131       1.50639660       2.00099640       0.00007705       0.00014934       0.00000004
B        1.30457807       0.75319717       6.00298921      -0.00007705      -0.00014934      -0.00000004
N       -0.00000131       1.50639660       6.00298921       0.00007771      -0.00011605      -0.00000006
N        1.30457807       0.75319717       2.00099640      -0.00007771       0.00011605       0.00000006
4
Lattice="2.639852254262319 0.0 0.0 -1.3199261271311595 2.2861796679685225 0.0 0.0 0.0 8.0981587868178" Properties=species:S:1:pos:R:3:forces:R:3 energy=-4338.00897129306 free_energy=-4338.00897129305 pbc="T T T"
B       -0.00000132       1.52412054       2.02453970       0.00007060      -0.00164908      -0.00000018
B        1.31992745       0.76205913       6.07361909      -0.00007060       0.00164908       0.00000018
N       -0.00000132       1.52412054       6.07361909       0.00007013       0.00052571       0.00000034
N        1.31992745       0.76205913       2.02453970      -0.00007013      -0.00052571      -0.00000034
4
Lattice="2.669853143654329 0.0 0.0 -1.3349265718271646 2.3121612066088932 0.0 0.0 0.0 8.190191197211217" Properties=species:S:1:pos:R:3:forces:R:3 energy=-4337.74928975032 free_energy=-4337.74928975032 pbc="T T T"
B       -0.00000134       1.54144158       2.04754780       0.00006485      -0.00172595       0.00000004
B        1.33492791       0.77071963       6.14264340      -0.00006485       0.00172595      -0.00000004
N       -0.00000134       1.54144158       6.14264340       0.00006359       0.00093764      -0.00000007
N        1.33492791       0.77071963       2.04754780      -0.00006359      -0.00093764       0.00000007
7
Lattice="3.5525068526847443 -2.2207375429557326 0.0 3.5525068526847443 2.2207375429557326 0.0 2.164282826290267 0.0 3.587179521271832" Properties=species:S:1:pos:R:3:forces:R:3 energy=-9067.54078846598 free_energy=-9067.54078846598 pbc="T T T"
C        3.52376401       0.00000000       0.06933301       1.14396730       0.00000019      -2.93187600
C        2.87027282      -1.04538777       1.75795831      -0.56262276      -2.72388322       1.46739554
C        2.87027282       1.04538777       1.75795831      -0.56262274       2.72388234       1.46739549
N        3.31610755      -1.08724423       0.61023304       1.02458186      -4.86427712      -2.61422943
N        2.63645111       0.00000000       2.36646951      -2.01682668      -0.00000061       5.24434494
N        6.16969012       0.00000000       2.38764462      -0.05105887       0.00000214      -0.01880108
N        3.31610755       1.08724423       0.61023304       1.02458188       4.86427628      -2.61422946
7
Lattice="3.6107550226285756 -2.2571495481021753 0.0 3.6107550226285756 2.2571495481021753 0.0 2.1997691797583814 0.0 3.6459961966615397" Properties=species:S:1:pos:R:3:forces:R:3 energy=-9068.71553775154 free_energy=-9068.71553775154 pbc="T T T"
C        3.58154090       0.00000000       0.07046982       0.83032176       0.00000002      -2.13232657
C        2.91733484      -1.06252832       1.78678242      -0.40908940      -1.97852366       1.06575221
C        2.91733484       1.06252832       1.78678242      -0.40908940       1.97852358       1.06575221
N        3.37047963      -1.10507107       0.62023864       0.75305371      -3.58437286      -1.92554755
N        2.67967931       0.00000000       2.40527099      -1.48745118      -0.00000005       3.86283856
N        6.27085056       0.00000000       2.42679329      -0.03079921       0.00000020      -0.01092130
N        3.37047963       1.10507107       0.62023864       0.75305372       3.58437279      -1.92554756
7
Lattice="3.6671821840489436 -2.2924232072406325 0.0 3.6671821840489436 2.2924232072406325 0.0 2.234146125803149 0.0 3.7029740903812027" Properties=species:S:1:pos:R:3:forces:R:3 energy=-9069.5293475881 free_energy=-9069.5293475881 pbc="T T T"
C        3.63751152       0.00000000       0.07157109       0.55465995       0.00000002      -1.42756383
C        2.96292556      -1.07913301       1.81470540      -0.27441269      -1.32440250       0.71393548
C        2.96292556       1.07913301       1.81470540      -0.27441269       1.32440241       0.71393548
N        3.42315188      -1.12234060       0.62993144       0.52153699      -2.49176311      -1.33950414
N        2.72155606       0.00000000       2.44285942      -1.03618475      -0.00000006       2.68318874
N        6.36884843       0.00000000       2.46471807      -0.01272379       0.00000023      -0.00448758
N        3.42315188       1.12234060       0.62993144       0.52153699       2.49176302      -1.33950415
7
Lattice="3.721924317128495 -2.3266435240907932 0.0 3.721924317128495 2.3266435240907932 0.0 2.2674965072131195 0.0 3.758250509787769" Properties=species:S:1:pos:R:3:forces:R:3 energy=-9070.04956395279 free_energy=-9070.04956395279 pbc="T T T"
C        3.69181074       0.00000000       0.07263947       0.31363801       0.00000000      -0.80664475
C        3.00715485      -1.09524185       1.84179455      -0.15583083      -0.74919920       0.40442413
C        3.00715485       1.09524185       1.84179455      -0.15583083       0.74919917       0.40442413
N        3.47425124      -1.13909442       0.63933479       0.32335272      -1.55848799      -0.83979870
N        2.76218229       0.00000000       2.47932538      -0.65135751      -0.00000001       1.67643892
N        6.46391988       0.00000000       2.50151033       0.00267570       0.00000005       0.00095499
N        3.47425124       1.13909442       0.63933479       0.32335273       1.55848797      -0.83979871
7
Lattice="3.7751018490853916 -2.359885779927446 0.0 3.7751018490853916 2.359885779927446 0.0 2.2998936914921124 0.0 3.8119470574758885" Properties=species:S:1:pos:R:3:forces:R:3 energy=-9070.33041167699 free_energy=-9070.33041167699 pbc="T T T"
C        3.74455802       0.00000000       0.07367732       0.10121088      -0.00000000      -0.25659335
C        3.05012001      -1.11089027       1.86810946      -0.05001899      -0.23938262       0.12932564
C        3.05012001       1.11089027       1.86810946      -0.05001899       0.23938262       0.12932564
N        3.52389010      -1.15536940       0.64846937       0.15384564      -0.76231798      -0.41331441
N        2.80164737       0.00000000       2.51474910      -0.32347699       0.00000000       0.81884529
N        6.55627407       0.00000000       2.53725102       0.01461281      -0.00000000       0.00572560
N        3.52389010       1.15536940       0.64846937       0.15384564       0.76231798      -0.41331441
7
Lattice="3.826822 -2.392217 0.0 3.826822 2.392217 0.0 2.331403 0.0 3.864172" Properties=species:S:1:pos:R:3:forces:R:3 energy=-9070.41516406898 free_energy=-9070.41516406898 pbc="T T T"
C        3.79585971       0.00000000       0.07468672      -0.08712198      -0.00000000       0.23176312
C        3.09190767      -1.12610984       1.89370318       0.04473743       0.21454425      -0.11550471
C        3.09190767       1.12610984       1.89370318       0.04473743      -0.21454425      -0.11550471
N        3.57216857      -1.17119834       0.65735362       0.00900497      -0.08393829      -0.04931868
N        2.84003087       0.00000000       2.54920200      -0.04422004       0.00000000       0.08837712
N        6.64609721       0.00000000       2.57201220       0.02385720      -0.00000000       0.00950655
N        3.57216857       1.17119834       0.65735362       0.00900497       0.08393829      -0.04931868
7
Lattice="3.877180696045939 -2.4236971495284934 0.0 3.877180696045939 2.4236971495284934 0.0 2.362082873544573 0.0 3.9150221997786225" Properties=species:S:1:pos:R:3:forces:R:3 energy=-9070.33846509898 free_energy=-9070.33846509898 pbc="T T T"
C        3.84581096       0.00000000       0.07566955      -0.25635052       0.00000000       0.66950857
C        3.13259533      -1.14092877       1.91862318       0.12999033       0.62215078      -0.33480136
C        3.13259533       1.14092877       1.91862318       0.12999033      -0.62215078      -0.33480136
N        3.61917618      -1.18661061       0.66600400      -0.11405181       0.49316221       0.26082993
N        2.87740398       0.00000000       2.58274798       0.19369176       0.00000000      -0.53373613
N        6.73355589       0.00000000       2.60585835       0.03078172       0.00000000       0.01217042
N        3.61917618       1.18661061       0.66600400      -0.11405181      -0.49316221       0.26082993
7
Lattice="3.926264143327927 -2.4543801175386535 0.0 3.926264143327927 2.4543801175386535 0.0 2.391985831205935 0.0 3.964584704292952" Properties=species:S:1:pos:R:3:forces:R:3 energy=-9070.12866499778 free_energy=-9070.12866499778 pbc="T T T"
C        3.89449728       0.00000000       0.07662750      -0.40807066      -0.00000000       1.06033498
C        3.17225265      -1.15537244       1.94291213       0.20598845       0.98536561      -0.53025592
C        3.17225265       1.15537244       1.94291213       0.20598845      -0.98536561      -0.53025592
N        3.66499340      -1.20163259       0.67443533      -0.21797242       0.98226990       0.52402230
N        2.91383069       0.00000000       2.61544446       0.39592298      -0.00000000      -1.06184718
N        6.81879982       0.00000000       2.63884740       0.03611563      -0.00000000       0.01397945
N        3.66499340       1.20163259       0.67443533      -0.21797242      -0.98226990       0.52402230
7
Lattice="3.97415013276681 -2.4843145325695892 0.0 3.97415013276681 2.4843145325695892 0.0 2.4211592653075944 0.0 4.0129380637076375" Properties=species:S:1:pos:R:3:forces:R:3 energy=-9069.80947686966 free_energy=-9069.80947686966 pbc="T T T"
C        3.94199583       0.00000000       0.07756207      -0.54296169      -0.00000000       1.40789413
C        3.21094247      -1.16946374       1.96660852       0.27328207       1.30795689      -0.70384274
C        3.21094247       1.16946374       1.96660852       0.27328207      -1.30795689      -0.70384274
N        3.70969285      -1.21628809       0.68266096      -0.30529236       1.39509474       0.74618825
N        2.94936871       0.00000000       2.64734327       0.56696962       0.00000000      -1.50791594
N        6.90196411       0.00000000       2.67103164       0.04001265       0.00000000       0.01533078
N        3.70969285       1.21628809       0.68266096      -0.30529236      -1.39509474       0.74618825
7
Lattice="4.020909129877806 -2.5135444439142707 0.0 4.020909129877806 2.5135444439142707 0.0 2.4496461053387137 0.0 4.060153431285328" Properties=species:S:1:pos:R:3:forces:R:3 energy=-9069.40089004736 free_energy=-9069.40089004736 pbc="T T T"
C        3.98837651       0.00000000       0.07847465      -0.66211773       0.00000000       1.71586475
C        3.24872173      -1.18322340       1.98974721       0.33279779       1.59356893      -0.85767774
C        3.24872173       1.18322340       1.98974721       0.33279779      -1.59356893      -0.85767774
N        3.75334030      -1.23059868       0.69069300      -0.37821860       1.74076119       0.93219583
N        2.98407035       0.00000000       2.67849134       0.71017574      -0.00000000      -1.88117335
N        6.98317114       0.00000000       2.70245842       0.04278361      -0.00000000       0.01627243
N        3.75334030       1.23059868       0.69069300      -0.37821860      -1.74076119       0.93219583
7
Lattice="4.066605191036539 -2.5421098943943186 0.0 4.066605191036539 2.5421098943943186 0.0 2.477485376168047 0.0 4.106295488595509" Properties=species:S:1:pos:R:3:forces:R:3 energy=-9068.91967398477 free_energy=-9068.91967398477 pbc="T T T"
C        4.03370285       0.00000000       0.07936648      -0.76757479      -0.00000000       1.98904752
C        3.28564218      -1.19667027       2.01235991       0.38565024       1.84686649      -0.99416703
C        3.28564218       1.19667027       2.01235991       0.38565024      -1.84686649      -0.99416703
N        3.79599554      -1.24458395       0.69854246      -0.43904545       2.02910794       1.08725931
N        3.01798314       0.00000000       2.70893135       0.82944663      -0.00000000      -2.19228396
N        7.06253215       0.00000000       2.73317080       0.04491857       0.00000000       0.01705187
N        3.79599554       1.24458395       0.69854246      -0.43904545      -2.02910794       1.08725931
4
Lattice="3.1684330518735653 0.01599012500095335 3.9925710998798962 1.4029723314357085 2.840931511323474 3.9925710998798962 0.025585356685462694 0.01599012500095335 5.096953837035316" Properties=species:S:1:pos:R:3:forces:R:3 energy=-8893.64771010567 free_energy=-8893.64771010567 pbc="T T T"
Na       0.00000000       0.00000000       0.00000000       0.00000014       0.00000009       0.00000041
N        2.65373224       1.65846290       7.55197955       3.58880935       2.24352926      10.21074780
N        2.29849537       1.43645588       6.54104802      -0.00000018      -0.00000011      -0.00000052
N        1.94325850       1.21444886       5.53011649      -3.58880931      -2.24352924     -10.21074770
4
Lattice="3.220383810736059 0.01625230479598309 4.0580347202421985 1.4259759663832952 2.887512438069695 4.0580347202421985 0.026004863322912835 0.01625230479598309 5.180525310816183" Properties=species:S:1:pos:R:3:forces:R:3 energy=-8894.15433503785 free_energy=-8894.15433503785 pbc="T T T"
Na       0.00000000       0.00000000       0.00000000      -0.00000277      -0.00000172      -0.00000788
N        2.69724378       1.68565565       7.67580450       2.69486628       1.68473401       7.66790249
N        2.33618232       1.46000852       6.64829738       0.00000323       0.00000204       0.00000916
N        1.97512086       1.23436140       5.62079025      -2.69486674      -1.68473433      -7.66790377
4
Lattice="3.2707104366038138 0.016506288082145867 4.121451755951774 1.4482604402765418 2.9326371085126275 4.121451755951774 0.026411254953261767 0.016506288082145867 5.261484095370589" Properties=species:S:1:pos:R:3:forces:R:3 energy=-8894.51979581165 free_energy=-8894.51979581165 pbc="T T T"
Na       0.00000000       0.00000000       0.00000000       0.00000670       0.00000417       0.00001903
N        2.73939503       1.71199827       7.79575832       1.92521106       1.20412071       5.47850349
N        2.37269107       1.48282484       6.75219380      -0.00000828      -0.00000517      -0.00002351
N        2.00598711       1.25365141       5.70862929      -1.92520949      -1.20411970      -5.47849902
4
Lattice="3.3195342083716946 0.0167526869174076 4.1829750316392005 1.4698794550340617 2.976414265689743 4.1829750316392005 0.026805510913529628 0.0167526869174076 5.340025288060042" Properties=species:S:1:pos:R:3:forces:R:3 energy=-8894.77030484307 free_energy=-8894.77030484307 pbc="T T T"
Na       0.00000000       0.00000000       0.00000000      -0.00001042      -0.00000651      -0.00002967
N        2.78028755       1.73755425       7.91213008       1.25978257       0.78875749       3.58450939
N        2.40810959       1.50495982       6.85298768       0.00001319       0.00000824       0.00003748
N        2.03593163       1.27236539       5.79384527      -1.25978534      -0.78875922      -3.58451720
4
Lattice="3.3669625334548567 0.016992043354564185 4.242739892358214 1.490880570326262 3.018940214968796 4.242739892358214 0.02718849852740054 0.016992043354564185 5.416321671653767" Properties=species:S:1:pos:R:3:forces:R:3 energy=-8894.92659343554 free_energy=-8894.92659343553 pbc="T T T"
Na       0.00000000       0.00000000       0.00000000      -0.00000949      -0.00000594      -0.00002705
N        2.82001131       1.76237981       8.02517578       0.68267257       0.42820342       1.94177923
N        2.44251580       1.52646215       6.95090073       0.00001228       0.00000764       0.00003474
N        2.06502030       1.29054449       5.87662567      -0.68267537      -0.42820513      -1.94178692
4
Lattice="3.41309104 0.01722484 4.30086684 1.51130613 3.0603007 4.30086684 0.02756099 0.01722484 5.49052708" Properties=species:S:1:pos:R:3:forces:R:3 energy=-8895.00532051944 free_energy=-8895.00532051944 pbc="T T T"
Na       0.00000000       0.00000000       0.00000000      -0.00000000       0.00000000       0.00000000
N        2.85864640       1.78652500       8.13512336       0.18125517       0.11448615       0.51483399
N        2.47597908       1.54737519       7.04613038       0.00000000       0.00000000      -0.00000000
N        2.09331176       1.30822538       5.95713740      -0.18125517      -0.11448615      -0.51483399
4
Lattice="3.4580052832703894 0.017451508625297946 4.3574636835243705 1.5311940176605794 3.1005724327224717 4.3574636835243705 0.027923676197093874 0.017451508625297946 5.56277914303134" Properties=species:S:1:pos:R:3:forces:R:3 energy=-8895.020194313 free_energy=-8895.020194313 pbc="T T T"
Na       0.00000000       0.00000000       0.00000000      -0.00001752      -0.00001094      -0.00004985
N        2.89626448       1.81003460       8.24217673      -0.25425064      -0.15820510      -0.72452195
N        2.50856149       1.56773772       7.13885326       0.00002298       0.00001448       0.00006551
N        2.12085849       1.32544085       6.03552978       0.25424519       0.15820156       0.72450629
4
Lattice="3.501782149330652 0.017672437251212786 4.41262730775565 1.5505782782190274 3.1398243519587155 4.41262730775565 0.02827717797995819 0.017672437251212786 5.633201544826225" Properties=species:S:1:pos:R:3:forces:R:3 energy=-8894.98265352244 free_energy=-8894.98265352244 pbc="T T T"
Na       0.00000000       0.00000000       0.00000000       0.00001302       0.00000814       0.00003703
N        2.93292995       1.83294887       8.34651916      -0.63345455      -0.39558003      -1.80372279
N        2.54031880       1.58758461       7.22922808      -0.00001738      -0.00001084      -0.00004967
N        2.14770766       1.34222036       6.11193700       0.63345891       0.39558272       1.80373543
4
Lattice="3.5444910188561707 0.0178879760210658 4.466445139909401 1.5694896332232837 3.1781186669281616 4.466445139909401 0.02862205560323546 0.0178879760210658 5.701905895790754" Properties=species:S:1:pos:R:3:forces:R:3 energy=-8894.90221739138 free_energy=-8894.90221739138 pbc="T T T"
Na       0.00000000       0.00000000       0.00000000      -0.00000001      -0.00000000      -0.00000005
N        2.96870091       1.85530411       8.44831601      -0.96394123      -0.60221893      -2.74406055
N        2.57130135       1.60694731       7.31739809      -0.00000016      -0.00000010      -0.00000052
N        2.17390179       1.35859051       6.18648016       0.96394139       0.60221903       2.74406113
4
Lattice="3.586194739091637 0.01809844210592613 4.518996374366174 1.587955911238436 3.215511728740308 4.518996374366174 0.02895881656357963 0.01809844210592613 5.768993296216372" Properties=species:S:1:pos:R:3:forces:R:3 energy=-8894.78671885395 free_energy=-8894.78671885395 pbc="T T T"
Na       0.00000000       0.00000000       0.00000000       0.00000044       0.00000025       0.00000121
N        3.00363001       1.87713321       8.54771709      -1.25200706      -0.78205322      -3.56364112
N        2.60155473       1.62585431       7.40349302      -0.00000035      -0.00000035      -0.00000115
N        2.19947946       1.37457540       6.25926896       1.25200697       0.78205332       3.56364105
4
Lattice="3.62695044105639 0.01830412382879941 4.570353002439338 1.6060024097027092 3.2520547631305434 4.570353002439338 0.029287922198656256 0.01830412382879941 5.83455565089118" Properties=species:S:1:pos:R:3:forces:R:3 energy=-8894.64262526686 free_energy=-8894.64262526686 pbc="T T T"
Na       0.00000000       0.00000000       0.00000000      -0.00000072      -0.00000045      -0.00000202
N        3.03776509       1.89846610       8.64485855      -1.50311008      -0.93857494      -4.27816965
N        2.63112039       1.64433151       7.48763083       0.00000084       0.00000049       0.00000262
N        2.22447568       1.39019691       6.33040311       1.50310996       0.93857490       4.27816906
40
Lattice="7.527855513577896 0.0001177199759980873 -2.661423066816263 -3.7638177836247135 6.519377062106319 -2.6614235866742124 7.067283158058818e-05 0.0001233548648420932 7.984467424141517" Properties=species:S:1:pos:R:3:forces:R:3 energy=-154807.06773703 free_energy=-154807.06773703 pbc="T T T"
Mg      -0.70504754       1.75868655      -0.77667087       0.50203493       0.46161203       0.21276967
Mg      -0.72900839       4.80238182      -0.84464960       0.18633247       0.08768467      -0.67831265
Mg       5.61556272       0.22726323       1.81691951      -0.17078823       0.11665904      -0.68382741
Mg       1.70284067       3.03270239      -0.63416500      -0.70387451      -0.11943944       0.06509605
Mg      -0.00624395       2.99105577       1.88485837       0.14277318      -0.66616046       0.20747225
Mg       2.00669258       0.04166978      -0.40585822       0.21454698       0.54642993       0.40208780
Mg       0.71146531       1.76983273       4.54631892      -0.64608916       0.20275552       0.21396375
Mg      -1.59559313       3.21821639       4.68879693       0.44692247      -0.54810932       0.06633436
Mg       0.84267864       4.97686743      -3.06729515      -0.57704908      -0.09048990       0.40438730
Mg       4.67865248       1.50106569      -0.40578770       0.37117674      -0.45980349       0.40412954
Mg      -0.10705514       0.26875564       2.02722180       0.24522643       0.66555009       0.07022463
Mg       2.64156764       1.49010579       1.81685760      -0.01771036      -0.20799219      -0.68006670
Mg       5.35971358       3.30141128      -2.02716524      -0.44708931       0.54814064      -0.06641505
Mg       3.05260643       4.74978723      -1.88470922       0.64651309      -0.20292687      -0.21385507
Mg       1.75742783       6.47795286       3.06746560      -0.21468118      -0.54645918      -0.40189263
Mg       3.77036767       3.52853049       0.77675391      -0.14286638       0.66655205      -0.20738585
Mg       2.06127108       3.48689808       3.29579661       0.70398208       0.11959862      -0.06516526
Mg      -1.85148432       6.29234558       0.84472564       0.17089351      -0.11664561       0.68365126
Mg       4.49312680       1.71726631       3.50629326      -0.18643108      -0.08777550       0.67816102
Mg       4.46917589       4.76096406       3.43828052      -0.50233328      -0.46192079      -0.21267518
Mg       2.92142525       1.54275787       5.72890323       0.57708418       0.09039086      -0.40423604
Mg      -0.91454727       5.01854052       3.06739814      -0.37110359       0.45993544      -0.40396153
Mg       3.87114976       6.25086575       0.63440864      -0.24518878      -0.66564775      -0.07033259
Mg       1.12256079       5.02949096       0.84478747       0.01766863       0.20806077       0.67990256
N       -1.88190193       3.25970189      -1.33070919      -0.00000961      -0.00001463      -0.00000600
N        3.76392874       0.00005886      -1.33071132      -0.00000776      -0.00001490      -0.00013472
N        7.52787595       0.00017940       1.33081096       0.00001296      -0.00000316       0.00003903
N        1.88206019       3.25979623       1.33081358       0.00001157       0.00002023      -0.00002158
N       -0.82379270       4.68680876       1.16521763       0.01159719      -0.02205503      -0.01689270
N       -2.58862366       4.88963470       4.15787800       0.02396704      -0.00031070       0.01753031
N        5.76303647       0.20300111       3.82669666       0.01187890       0.02109231      -0.01620734
N        2.58884560       1.62996317       3.82669015      -0.02486880      -0.00107151      -0.01711123
N        3.64690011       3.05699042      -1.16509208      -0.01222989      -0.02248281       0.01734287
N        2.70595164       5.09244099      -3.82654095      -0.01174538       0.02000616       0.01589548
N        4.58791035       1.83281367       1.49640578      -0.01150417       0.02194109       0.01691326
N        6.35272729       1.62998167      -1.49626883      -0.02389289       0.00033019      -0.01754242
N       -1.99893756       6.31662302      -1.16507526      -0.01178994      -0.02095025       0.01623852
N        1.17526240       4.88964212      -1.16506919       0.02473584       0.00105857       0.01717848
N        0.11720923       3.46263117       3.82670242       0.01221981       0.02245216      -0.01735887
N        1.05816154       1.42717448       6.48814866       0.01167538      -0.01999686      -0.01591730
40
Lattice="7.651284918629181 0.00011965015472878791 -2.7050607090550636 -3.825530682991115 6.626271094627185 -2.7050612374367895 7.183160854429954e-05 0.00012537743522089218 8.115383601004314" Properties=species:S:1:pos:R:3:forces:R:3 energy=-154812.04718832 free_energy=-154812.04718832 pbc="T T T"
Mg      -0.71660775       1.78752261      -0.78940544       0.40236134       0.37048278       0.15720487
Mg      -0.74096147       4.88112338      -0.85849878       0.15637487       0.05972532      -0.53964860
Mg       5.70763749       0.23098952       1.84671037      -0.13059644       0.10497754      -0.54422674
Mg       1.73076106       3.08242766      -0.64456300      -0.55927605      -0.10713599       0.05656587
Mg      -0.00634633       3.04009818       1.91576318       0.11443741      -0.53470578       0.15167536
Mg       2.03959502       0.04235301      -0.41251281       0.17912564       0.42754893       0.32681885
Mg       0.72313075       1.79885153       4.62086199      -0.51852955       0.16219937       0.15869185
Mg      -1.62175504       3.27098341       4.76567612       0.36473050      -0.42816266       0.05845861
Mg       0.85649550       5.05846992      -3.11758762      -0.45532309      -0.06079180       0.32964086
Mg       4.75536533       1.52567770      -0.41244114       0.28556649      -0.36966104       0.32974461
Mg      -0.10881045       0.27316226       2.06046085       0.18341884       0.53452730       0.06138768
Mg       2.68487973       1.51453809       1.84664745      -0.02694499      -0.16711222      -0.54034454
Mg       5.44759335       3.35554239      -2.06040337      -0.36488464       0.42819295      -0.05853403
Mg       3.10265805       4.82766644      -1.91561158       0.51891314      -0.16235300      -0.15858937
Mg       1.78624324       6.58416769       3.11776086      -0.17924013      -0.42756930      -0.32665195
Mg       3.83218796       3.58638554       0.78948984      -0.11452007       0.53506002      -0.15159372
Mg       2.09506842       3.54407050       3.34983566       0.55937655       0.10728191      -0.05663244
Mg      -1.88184191       6.39551712       0.85857606       0.13069898      -0.10495633       0.54406716
Mg       4.56679771       1.74542323       3.56378370      -0.15646091      -0.05981891       0.53950890
Mg       4.54245410       4.83902652       3.49465579      -0.40263088      -0.37076183      -0.15711507
Mg       2.96932598       1.56805348       5.82283637       0.45534602       0.06070553      -0.32951362
Mg      -0.92954251       5.10082630       3.11769229      -0.28549948       0.36977194      -0.32960255
Mg       3.93462252       6.35335718       0.64481063      -0.18338418      -0.53462009      -0.06148565
Mg       1.14096669       5.11195629       0.85863891       0.02689633       0.16717567       0.54019668
N       -1.91275826       3.31314913      -1.35252797      -0.00000886      -0.00002358      -0.00000905
N        3.82564345       0.00005983      -1.35253014      -0.00000740      -0.00001308      -0.00011294
N        7.65130569       0.00018234       1.35263141       0.00002045       0.00000082       0.00003208
N        1.91291912       3.31324501       1.35263407       0.00000284       0.00002338      -0.00002199
N       -0.83729989       4.76365535       1.18432295       0.00975691      -0.01815920      -0.01390282
N       -2.63106766       4.96980690       4.22605205       0.01981449      -0.00037198       0.01439784
N        5.85752928       0.20632959       3.88944055       0.00989147       0.01725214      -0.01376891
N        2.63129323       1.65668863       3.88943392      -0.02045648      -0.00061523      -0.01409014
N        3.70669598       3.10711392      -1.18419535      -0.01039752      -0.01847303       0.01418600
N        2.75031939       5.17593847      -3.88928228      -0.00950528       0.01638763       0.01316053
N        4.66313537       1.86286514       1.52094138      -0.00968791       0.01805748       0.01392018
N        6.45688887       1.65670743      -1.52080219      -0.01973829       0.00039290      -0.01439840
N       -2.03171285       6.42019263      -1.18417825      -0.00980544      -0.01713874       0.01379465
N        1.19453242       4.96981443      -1.18417208       0.02034489       0.00061811       0.01414829
N        0.11913104       3.51940571       3.88944640       0.01038605       0.01843426      -0.01419032
N        1.07551154       1.45057494       6.59453066       0.00943438      -0.01637219      -0.01316799
40
Lattice="7.770855558695041 0.00012151999041482632 -2.7473341106913303 -3.885314256236847 6.729823306374703 -2.7473346473303546 7.295415874363795e-05 0.00012733677412130054 8.242206954450408" Properties=species:S:1:pos:R:3:forces:R:3 energy=-154815.643966569 free_energy=-154815.643966569 pbc="T T T"
Mg      -0.72780656       1.81545716      -0.80174189       0.31883013       0.29267846       0.11017388
Mg      -0.75254086       4.95740326      -0.87191499       0.13115534       0.03615856      -0.42174021
Mg       5.79683373       0.23459931       1.87556988      -0.09750739       0.09539405      -0.42548279
Mg       1.75780857       3.13059838      -0.65463592      -0.43668754      -0.09646690       0.04783554
Mg      -0.00644550       3.08760739       1.94570182       0.08967250      -0.42418396       0.10473962
Mg       2.07146885       0.04301489      -0.41895937       0.14805126       0.32712852       0.26382158
Mg       0.73443149       1.82696313       4.69307462      -0.40953656       0.12896760       0.11259032
Mg      -1.64709906       3.32210078       4.84015184       0.29506533      -0.32660232       0.05034334
Mg       0.86988041       5.13752129      -3.16630779      -0.35186316      -0.03582435       0.26675269
Mg       4.82967992       1.54952027      -0.41888657       0.21351041      -0.29327218       0.26684646
Mg      -0.11051089       0.27743111       2.09266075       0.13063837       0.42319390       0.05289605
Mg       2.72683775       1.53820657       1.87550597      -0.03416150      -0.13367981      -0.42248294
Mg       5.53272575       3.40798121      -2.09260237      -0.29520805       0.32663066      -0.05041402
Mg       3.15114491       4.90311091      -1.94554785       0.40988477      -0.12910532      -0.11249316
Mg       1.81415780       6.68706193       3.16648374      -0.14814968      -0.32714136      -0.26367908
Mg       3.89207557       3.64243187       0.80182761      -0.08974703       0.42450550      -0.10466220
Mg       2.12780915       3.59945555       3.40218530       0.43678129       0.09660098      -0.04789967
Mg      -1.91125044       6.49546322       0.87199348       0.09760719      -0.09536580       0.42533754
Mg       4.63816545       1.77269987       3.61947681      -0.13122929      -0.03625439       0.42161154
Mg       4.61344141       4.91464853       3.54926861      -0.31907474      -0.29293286      -0.11008873
Mg       3.01572919       1.59255828       5.91383289       0.35187625       0.03574826      -0.26664636
Mg      -0.94406896       5.18053958       3.16641411      -0.21344818       0.29336569      -0.26672807
Mg       3.99611092       6.45264442       0.65488742      -0.13060598      -0.42328177      -0.05298508
Mg       1.15879718       5.19184351       0.87205731       0.03410668       0.13373833       0.42234939
N       -1.94264994       3.36492545      -1.37366464      -0.00000779      -0.00003167      -0.00001087
N        3.88542879       0.00006076      -1.37366684      -0.00000658      -0.00001075      -0.00009421
N        7.77087665       0.00018519       1.37376969       0.00002658       0.00000450       0.00002637
N        1.94281331       3.36502283       1.37377239      -0.00000453       0.00002583      -0.00002198
N       -0.85038482       4.83809949       1.20283099       0.00801420      -0.01498879      -0.01167100
N       -2.67218473       5.04747267       4.29209478       0.01636426      -0.00026308       0.01206683
N        5.94906796       0.20955401       3.95022287       0.00809827       0.01419717      -0.01148838
N        2.67241383       1.68257857       3.95021615      -0.01670659      -0.00052286      -0.01177548
N        3.76462246       3.15567042      -1.20270139      -0.00836295      -0.01525570       0.01137612
N        2.79330007       5.25682557      -3.95006213      -0.00754140       0.01353161       0.01068178
N        4.73600863       1.89197711       1.54470993      -0.00796503       0.01489788       0.01168535
N        6.55779406       1.68259767      -1.54456856      -0.01628716       0.00028524      -0.01205820
N       -2.06346349       6.52052434      -1.20268403      -0.00801515      -0.01410725       0.01150960
N        1.21320000       5.04748033      -1.20267776       0.01661312       0.00053879       0.01182586
N        0.12099276       3.57440531       3.95022881       0.00835037       0.01521045      -0.01137029
N        1.09231912       1.47324383       6.69758684       0.00746995      -0.01351084      -0.01067714
40
Lattice="7.886855579361148 0.0001233339890528131 -2.7883451436734457 -3.9433125719452757 6.830283241155656 -2.7883456883231883 7.40431873400415e-05 0.00012923760322796157 8.365243107912399" Properties=species:S:1:pos:R:3:forces:R:3 energy=-154818.118036069 free_energy=-154818.118036069 pbc="T T T"
Mg      -0.73867094       1.84255753      -0.81370995       0.24646008       0.22589526       0.07126369
Mg      -0.76377447       5.03140526      -0.88493056       0.10786604       0.01632920      -0.32032271
Mg       5.88336639       0.23810131       1.90356759      -0.06928836       0.08543855      -0.32354024
Mg       1.78404839       3.17733062      -0.66440805      -0.33104201      -0.08578988       0.03997604
Mg      -0.00654172       3.13369788       1.97474642       0.06857516      -0.32892093       0.06638176
Mg       2.10239085       0.04365699      -0.42521341       0.12041775       0.24192301       0.20854998
Mg       0.74539477       1.85423526       4.76313084      -0.31495338       0.09938245       0.07451600
Mg      -1.67168625       3.37169169       4.91240356       0.23346772      -0.24056972       0.04294515
Mg       0.88286561       5.21421201      -3.21357309      -0.26414903      -0.01540351       0.21146372
Mg       4.90177532       1.57265084      -0.42513954       0.15242946      -0.22784908       0.21100857
Mg      -0.11216055       0.28157248       2.12389910       0.08652620       0.32650959       0.04542432
Mg       2.76754282       1.56116827       1.90350273      -0.03889892      -0.10399577      -0.32193581
Mg       5.61531592       3.45885411      -2.12383985      -0.23360115       0.24059624      -0.04301156
Mg       3.19818386       4.97630246      -1.97459016       0.31527140      -0.09950628      -0.07442382
Mg       1.84123878       6.78688354       3.21375166      -0.12050249      -0.24193021      -0.20842902
Mg       3.95017482       3.69680454       0.81379695      -0.06864274       0.32921403      -0.06630779
Mg       2.15957218       3.65318669       3.45297167       0.33112980       0.08591414      -0.04003755
Mg      -1.93978078       6.59242473       0.88501023       0.06938582      -0.08540447       0.32340722
Mg       4.70740201       1.79916198       3.67350682      -0.10792985      -0.01642636       0.32020398
Mg       4.68230889       4.98801230       3.60225058      -0.24668340      -0.22612847      -0.07118250
Mg       3.06074671       1.61633131       6.00211207       0.26415456       0.01533685      -0.21137562
Mg      -0.95816162       5.25787247       3.21368099      -0.15237113       0.22792831      -0.21091010
Mg       4.05576317       6.54896675       0.66466330      -0.08649593      -0.32659344      -0.04550563
Mg       1.17609521       5.26934514       0.88507501       0.03883949       0.10405004       0.32181487
N       -1.97164899       3.41515562      -1.39417012      -0.00000747      -0.00003726      -0.00001231
N        3.94342882       0.00006167      -1.39417235      -0.00000569      -0.00000942      -0.00007792
N        7.88687699       0.00018795       1.39427674       0.00003140       0.00000739       0.00002093
N        1.97181480       3.41525446       1.39427948      -0.00001108       0.00002860      -0.00002153
N       -0.86307900       4.91032058       1.22078634       0.00630536      -0.01220497      -0.00950664
N       -2.71207397       5.12281919       4.35616534       0.01324394      -0.00007695       0.00998750
N        6.03787311       0.21268215       4.00919012       0.00630700       0.01137552      -0.00888392
N        2.71230649       1.70769539       4.00918329      -0.01345325      -0.00057999      -0.00962063
N        3.82081914       3.20277692      -1.22065480      -0.00631612      -0.01243546       0.00904075
N        2.83499726       5.33529722      -4.00902698      -0.00592071       0.01103869       0.00816132
N        4.80670575       1.92021974       1.56776870      -0.00627319       0.01212301       0.00951826
N        6.65568601       1.70771477      -1.56762523      -0.01316634       0.00009991      -0.00997005
N       -2.09426600       6.61785995      -1.22063718      -0.00622698      -0.01130793       0.00890130
N        1.23131014       5.12282697      -1.22063082       0.01337530       0.00060753       0.00966472
N        0.12279889       3.62776251       4.00919615       0.00630295       0.01238564      -0.00902798
N        1.10862480       1.49523579       6.79756557       0.00584981      -0.01101387      -0.00814680
40
Lattice="7.999540169072117 0.00012509614125833876 -2.8281840281725663 -3.9996532206107047 6.927871900779835 -2.8281845806040713 7.510109008751148e-05 0.00013108410417481315 8.484762728623393" Properties=species:S:1:pos:R:3:forces:R:3 energy=-154819.674864045 free_energy=-154819.674864045 pbc="T T T"
Mg      -0.74922481       1.86888334      -0.82533595       0.18264524       0.16849515       0.03939841
Mg      -0.77468701       5.10329219      -0.89757414       0.08586883      -0.00043926      -0.23277230
Mg       5.96742584       0.24150322       1.93076509      -0.04438356       0.07462955      -0.23597468
Mg       1.80953823       3.22272719      -0.67390087      -0.23968597      -0.07448501       0.03428285
Mg      -0.00663519       3.17847104       2.00296090       0.05143483      -0.24551610       0.03548511
Mg       2.13242906       0.04428075      -0.43128871       0.09633977       0.16925436       0.15877065
Mg       0.75604471       1.88072791       4.83118476      -0.23296518       0.07220463       0.04257702
Mg      -1.69557071       3.41986522       4.98259024       0.17848475      -0.16804875       0.03680775
Mg       0.89547968       5.28871082      -3.25948748      -0.18990291       0.00091249       0.16199664
Mg       4.97181015       1.59512032      -0.43121378       0.10047165      -0.17152184       0.16033005
Mg      -0.11376306       0.28559549       2.15424461       0.05082109       0.24210443       0.03958657
Mg       2.80708449       1.58347368       1.93069930      -0.04181093      -0.07658971      -0.23552195
Mg       5.69554556       3.50827298      -2.15418452      -0.17860913       0.16807421      -0.03687005
Mg       3.24387838       5.04740210      -2.00280240       0.23325587      -0.07231664      -0.04248930
Mg       1.86754574       6.88385212       3.25966861      -0.09641297      -0.16925679      -0.15866843
Mg       4.00661351       3.74962317       0.82542419      -0.05149647       0.24578377      -0.03541486
Mg       2.19042738       3.70538212       3.50230651       0.23976852       0.07460017      -0.03434186
Mg      -1.96749567       6.68661495       0.89765494       0.04447901      -0.07459099       0.23585344
Mg       4.77465969       1.82486776       3.72599258      -0.08592366       0.00034136       0.23266350
Mg       4.74920806       5.05927925       3.65371825      -0.18284981      -0.16870930      -0.03932063
Mg       3.10447757       1.63942487       6.08786811       0.18990206      -0.00097129      -0.16192381
Mg      -0.97185149       5.33299508       3.25959692      -0.10041749       0.17158880      -0.16024893
Mg       4.11371047       6.64253606       0.67415978      -0.05079203      -0.24218432      -0.03966162
Mg       1.19289884       5.34463167       0.89772065       0.04174741       0.07664067       0.23541226
N       -1.99981921       3.46395015      -1.41408952      -0.00000659      -0.00004302      -0.00001366
N        3.99977113       0.00006255      -1.41409179      -0.00000627      -0.00000819      -0.00006432
N        7.99956188       0.00019064       1.41419767       0.00003711       0.00000919       0.00001734
N        1.99998739       3.46405040       1.41420045      -0.00001619       0.00003016      -0.00002171
N       -0.87541037       4.98047749       1.23822850       0.00477982      -0.00954650      -0.00746296
N       -2.75082312       5.19601221       4.41840469       0.01026956       0.00007682       0.00785212
N        6.12414009       0.21572087       4.06647200       0.00477178       0.00873684      -0.00666428
N        2.75105896       1.73209433       4.06646508      -0.01081035      -0.00057855      -0.00773887
N        3.87540965       3.24853706      -1.23809509      -0.00481522      -0.00973645       0.00725338
N        2.87550270       5.41152605      -4.06630653      -0.00462921       0.00866340       0.00609825
N        4.87538225       1.94765516       1.59016842      -0.00476402       0.00947397       0.00747291
N        6.75078009       1.73211399      -1.59002290      -0.01019166      -0.00005233      -0.00783017
N       -2.12418813       6.71241358      -1.23807721      -0.00469402      -0.00868665       0.00667833
N        1.24890266       5.19602010      -1.23807076       0.01074643       0.00061459       0.00777682
N        0.12455340       3.67959469       4.06647812       0.00480123       0.00968330      -0.00723330
N        1.12446443       1.51659919       6.89468677       0.00455868      -0.00863617      -0.00607570
40
Lattice="8.10913653 0.00012681 -2.86693109 -4.0544498 7.02278605 -2.86693165 7.613e-05 0.00013288 8.6010068" Properties=species:S:1:pos:R:3:forces:R:3 energy=-154820.478742997 free_energy=-154820.478742997 pbc="T T T"
Mg      -0.75948944       1.89448766      -0.83664333       0.12712439       0.11948407       0.01308842
Mg      -0.78530048       5.17320899      -0.90987120       0.06567877      -0.01431362      -0.15798456
Mg       6.04918156       0.24481189       1.95721721      -0.02247066       0.06394432      -0.16117001
Mg       1.83432951       3.26687962      -0.68313354      -0.16178463      -0.06369817       0.03094482
Mg      -0.00672609       3.22201715       2.03040213       0.03776833      -0.17244121       0.01004256
Mg       2.16164405       0.04488741      -0.43719751       0.07591914       0.10685035       0.11467946
Mg       0.76640277       1.90649451       4.89737360      -0.16317738       0.04798363       0.01508379
Mg      -1.71880059       3.46671851       5.05085338       0.13049678      -0.10684690       0.03203510
Mg       0.90774805       5.36116792      -3.30414354      -0.12709191       0.01365745       0.11808101
Mg       5.03992560       1.61697400      -0.43712155       0.05592081      -0.12293422       0.11557858
Mg      -0.11532165       0.28950824       2.18375848       0.02166840       0.16908190       0.03524342
Mg       2.84554248       1.60516780       1.95715052      -0.04394063      -0.05195468      -0.16136899
Mg       5.77357643       3.55633749      -2.18369756      -0.13061325       0.10687071      -0.03209389
Mg       3.28832059       5.11655319      -2.03024146       0.16344358      -0.04808519      -0.01500027
Mg       1.89313174       6.97816318       3.30432715      -0.07598265      -0.10684835      -0.11459292
Mg       4.06150545       3.80099425       0.83673278      -0.03782443       0.17268490      -0.00997554
Mg       2.22043696       3.75614709       3.55028927       0.16186197       0.06380499      -0.03100153
Mg      -1.99445102       6.77822380       0.90995311       0.02256376      -0.06390193       0.16105889
Mg       4.84007412       1.84986906       3.77703992      -0.06572576       0.01421554       0.15788435
Mg       4.81427379       5.12859306       3.70377541      -0.12731125      -0.11967998      -0.01301376
Mg       3.14700995       1.66188554       6.17127393       0.12708551      -0.01370943      -0.11802117
Mg      -0.98516618       5.40605889       3.30425448      -0.05587037       0.12298987      -0.11551162
Mg       4.17006967       6.73354101       0.68339599      -0.02164057      -0.16915769      -0.03531294
Mg       1.20924195       5.41785490       0.91001972       0.04387441       0.05200295       0.16126927
N       -2.02721740       3.51140742      -1.43346302      -0.00000617      -0.00004755      -0.00001487
N        4.05456932       0.00006341      -1.43346532      -0.00000610      -0.00000685      -0.00005225
N        8.10915854       0.00019325       1.43357265       0.00004095       0.00001100       0.00001344
N        2.02738788       3.51150904       1.43357547      -0.00002052       0.00003166      -0.00002187
N       -0.88740378       5.04871169       1.25519264       0.00311842      -0.00669159      -0.00524473
N       -2.78851031       5.26719931       4.47893830       0.00716169       0.00009765       0.00555385
N        6.20804285       0.21867632       4.12218402       0.00330359       0.00625380      -0.00432076
N        2.78874938       1.75582460       4.12217700      -0.00765004      -0.00048938      -0.00546149
N        3.92850405       3.29304310      -1.25505740      -0.00325153      -0.00695959       0.00518963
N        2.91489804       5.48566576      -4.12201628      -0.00308689       0.00585962       0.00409645
N        4.94217661       1.97433868       1.61195426      -0.00311611       0.00662671       0.00525272
N        6.84326802       1.75584453      -1.61180674      -0.00708450      -0.00007289      -0.00552705
N       -2.15329021       6.80437588      -1.25503928      -0.00322805      -0.00621891       0.00433170
N        1.26601304       5.26720730      -1.25503274       0.00759857       0.00053365       0.00549417
N        0.12625982       3.73000636       4.12219022       0.00323718       0.00690322      -0.00516415
N        1.13986997       1.53737710       6.98914627       0.00301714      -0.00582986      -0.00406728
40
Lattice="8.215847932231224 0.00012847874399843668 -2.9046581939379315 -4.107803942186838 7.115201727574658 -2.9046587613071977 7.713182541283012e-05 0.00013462862157962517 8.714190921741293" Properties=species:S:1:pos:R:3:forces:R:3 energy=-154820.663299647 free_energy=-154820.663299647 pbc="T T T"
Mg      -0.76948387       1.91941799      -0.84765306       0.07967419       0.07799144      -0.00934824
Mg      -0.79563457       5.24128534      -0.92184456       0.04816699      -0.02548466      -0.09454513
Mg       6.12878518       0.24803347       1.98297302      -0.00327727       0.05418006      -0.09763749
Mg       1.85846819       3.30986981      -0.69212317      -0.09568510      -0.05413377       0.02857906
Mg      -0.00681460       3.26441697       2.05712101       0.02652497      -0.10906804      -0.01185629
Mg       2.19009000       0.04547810      -0.44295077       0.05871254       0.05313396       0.07650957
Mg       0.77648817       1.93158284       4.96182012      -0.10424813       0.02759337      -0.00867400
Mg      -1.74141898       3.51233846       5.11731960       0.08971404      -0.05449388       0.02807414
Mg       0.91969347       5.43171769      -3.34762410      -0.07338981       0.02392558       0.07967205
Mg       5.10624802       1.63825241      -0.44287381       0.01800883      -0.08042709       0.07784221
Mg      -0.11683921       0.29331800       2.21249544      -0.00281988       0.10666470       0.03163239
Mg       2.88298812       1.62629085       1.98290545      -0.04559541      -0.03076380      -0.09774757
Mg       5.84955325       3.60313677      -2.21243372      -0.08982206       0.05451601      -0.02812928
Mg       3.33159293       5.18388398      -2.05695823       0.10449098      -0.02768561       0.00875389
Mg       1.91804423       7.06999165       3.34781013      -0.05876687      -0.05312801      -0.07643625
Mg       4.11495244       3.85101307       0.84774368      -0.02657574       0.10928916       0.01191925
Mg       2.24965659       3.80557575       3.59700896       0.09575749       0.05423325      -0.02863328
Mg      -2.02069681       6.86742118       0.92192755       0.00336824      -0.05413466       0.09753518
Mg       4.90376661       1.87421223       3.82674351      -0.04820717       0.02538685       0.09445247
Mg       4.87762676       5.19608229       3.75251489      -0.07984322      -0.07816905       0.00941959
Mg       3.18842272       1.68375496       6.25248422       0.07337770      -0.02397080      -0.07962305
Mg      -0.99813038       5.47719940       3.34773650      -0.01796219       0.08047193      -0.07778755
Mg       4.22494530       6.82215040       0.69238907       0.00284611      -0.10673601      -0.03169669
Mg       1.22515485       5.48915064       0.92199504       0.04552646       0.03080876       0.09765639
N       -2.05389437       3.55761545      -1.45232654      -0.00000452      -0.00005113      -0.00001591
N        4.10792503       0.00006424      -1.45232887      -0.00000618      -0.00000580      -0.00004036
N        8.21587023       0.00019579       1.45243761       0.00004385       0.00001347       0.00000969
N        2.05406710       3.55771841       1.45244047      -0.00002514       0.00003174      -0.00002230
N       -0.89908148       5.11514973       1.27171023       0.00197130      -0.00423388      -0.00311804
N       -2.82520544       5.33651251       4.53787846       0.00434058       0.00008415       0.00339512
N        6.28973699       0.22155397       4.17642950       0.00221385       0.00398632      -0.00250774
N        2.82544766       1.77893020       4.17642239      -0.00492313      -0.00045460      -0.00337161
N        3.98020082       3.33637758      -1.27157321      -0.00209312      -0.00465573       0.00352902
N        2.95325636       5.55785385      -4.17625956      -0.00187387       0.00342677       0.00255045
N        5.00721271       2.00031980       1.63316662      -0.00198033       0.00417388       0.00312314
N        6.93332135       1.77895040      -1.63301716      -0.00426287      -0.00005816      -0.00336395
N       -2.18162623       6.89391741      -1.27155485      -0.00213900      -0.00396370       0.00251554
N        1.28267302       5.33652061      -1.27154822       0.00488036       0.00050587       0.00339902
N        0.12792132       3.77909102       4.17643579       0.00207852       0.00459567      -0.00349849
N        1.15486998       1.55760807       7.08111927       0.00180404      -0.00339454      -0.00251492
40
Lattice="8.319857048770404 0.00013010522987884316 -2.9414299228077634 -4.159806981004888 7.205277134493992 -2.9414304973596814 7.810828129229819e-05 0.00013633296227663971 8.824508847121626" Properties=species:S:1:pos:R:3:forces:R:3 energy=-154820.337989473 free_energy=-154820.337989473 pbc="T T T"
Mg      -0.77922520       1.94371700      -0.85838398       0.03939325       0.04340834      -0.02925244
Mg      -0.80570696       5.30763776      -0.93351472       0.03383627      -0.03500220      -0.04063712
Mg       6.20637298       0.25117347       2.00807661       0.01322629       0.04588944      -0.04364199
Mg       1.88199560       3.35177134      -0.70088515      -0.03950580      -0.04617081       0.02583753
Mg      -0.00690087       3.30574310       2.08316328       0.01651698      -0.05509769      -0.03106048
Mg       2.21781560       0.04605383      -0.44855834       0.04436975       0.00729486       0.04389080
Mg       0.78631818       1.95603585       5.02463463      -0.05418586       0.01099509      -0.02837990
Mg      -1.76346460       3.55680316       5.18210267       0.05528002      -0.00939862       0.02495504
Mg       0.93133640       5.50048091      -3.39000359      -0.02722984       0.03291428       0.04699780
Mg       5.17089093       1.65899199      -0.44848040      -0.01348740      -0.04347870       0.04683735
Mg      -0.11831835       0.29703128       2.24050468      -0.02397087       0.05373723       0.02811707
Mg       2.91948552       1.64687900       2.00800819      -0.04647485      -0.01315835      -0.04302602
Mg       5.92360609       3.64875094      -2.24044218      -0.05538183       0.00942001      -0.02500736
Mg       3.37376947       5.24950973      -2.08299844       0.05440773      -0.01107868       0.02845640
Mg       1.94232584       7.15949471       3.39019197      -0.04441450      -0.00728451      -0.04382946
Mg       4.16704598       3.89976524       0.85847576      -0.01656393       0.05529818       0.03112020
Mg       2.27813628       3.85375271       3.64254555       0.03957570       0.04626352      -0.02588983
Mg      -2.04627796       6.95435980       0.93359876      -0.01313770      -0.04584369       0.04354864
Mg       4.96584620       1.89793896       3.87518845      -0.03387172       0.03490579       0.04055156
Mg       4.93937543       5.26186246       3.80002012      -0.03954804      -0.04356954       0.02932140
Mg       3.22878679       1.70507058       6.33163799       0.02721312      -0.03295449      -0.04695943
Mg      -1.01076628       5.54653840       3.39011741       0.01353070       0.04351455      -0.04679382
Mg       4.27843130       6.90851590       0.70115442       0.02399495      -0.05380641      -0.02817615
Mg       1.24066479       5.55864094       0.93366710       0.04640622       0.01320157       0.04294247
N       -2.07989580       3.60265334      -1.47071237      -0.00000501      -0.00005301      -0.00001651
N        4.15992961       0.00006506      -1.47071473      -0.00000557      -0.00000482      -0.00003186
N        8.31987963       0.00019827       1.47082485       0.00004682       0.00001324       0.00000518
N        2.08007071       3.60275760       1.47082774      -0.00002304       0.00003440      -0.00002421
N       -0.91046347       5.17990533       1.28780953       0.00121099      -0.00247806      -0.00141453
N       -2.86097133       5.40407048       4.59532606       0.00215848      -0.00004193       0.00185098
N        6.36936237       0.22435875       4.22930131       0.00151613       0.00222462      -0.00129167
N        2.86121662       1.80145070       4.22929411      -0.00276160      -0.00035609      -0.00168875
N        4.03058846       3.37861470      -1.28767078      -0.00117620      -0.00285526       0.00215728
N        2.99064332       5.62821390      -4.22912921      -0.00104573       0.00162583       0.00145194
N        5.07060188       2.02564299       1.65384181      -0.00123278       0.00242899       0.00141584
N        7.02109423       1.80147115      -1.65369045      -0.00208574       0.00006291      -0.00181790
N       -2.20924468       6.98119145      -1.28765219      -0.00144501      -0.00221686       0.00129910
N        1.29891111       5.40407867      -1.28764548       0.00272931       0.00041243       0.00171326
N        0.12954075       3.82693269       4.22930767       0.00116136       0.00279543      -0.00211832
N        1.16949014       1.57732672       7.17076321       0.00097896      -0.00159101      -0.00141210
40
Lattice="8.421328720626068 0.00013169203541114771 -2.977304555047712 -4.210541334550279 7.293155028637444 -2.9773051366070513 7.906091519478492e-05 0.00013799572325079494 8.93213541579625" Properties=species:S:1:pos:R:3:forces:R:3 energy=-154819.593057419 free_energy=-154819.593057419 pbc="T T T"
Mg      -0.78872889       1.96742320      -0.86885311       0.00525685       0.01394435      -0.04676096
Mg      -0.81553362       5.37237143      -0.94490017       0.02249288      -0.04315652       0.00566813
Mg       6.28206791       0.25423686       2.03256776       0.02656965       0.03937323       0.00284532
Mg       1.90494903       3.39265063      -0.70943338       0.00877709      -0.04010461       0.02244790
Mg      -0.00698504       3.34606101       2.10857022       0.00705420      -0.00953731      -0.04777899
Mg       2.24486480       0.04661552      -0.45402910       0.03170833      -0.03128617       0.01730680
Mg       0.79590837       1.97989230       5.08591671      -0.01131052      -0.00247138      -0.04441366
Mg      -1.78497239       3.60018308       5.24530528       0.02627640       0.02957058       0.02209400
Mg       0.94269528       5.56756656      -3.43134917       0.01295307       0.04132375       0.01999955
Mg       5.23395679       1.67922559      -0.45395021      -0.03935172      -0.01230185       0.02099827
Mg      -0.11976140       0.30065397       2.26783061      -0.04251022       0.00900970       0.02427751
Mg       2.95509251       1.66696487       2.03249851      -0.04686937       0.00104629       0.00419712
Mg       5.99585231       3.69325229      -2.26776734      -0.02636918      -0.02954936      -0.02214291
Mg       3.41491705       5.31353445      -2.10840336       0.01151212       0.00239582       0.04448564
Mg       1.96601508       7.24681423       3.43153985      -0.03174422       0.03129866      -0.01725627
Mg       4.21786862       3.94732804       0.86894600      -0.00709472       0.00971894       0.04783458
Mg       2.30592116       3.90075432       3.68697122      -0.00871429       0.04018966      -0.02249755
Mg      -2.07123503       7.03917742       0.94498523      -0.02648528      -0.03932433      -0.00293162
Mg       5.02641126       1.92108684       3.92245150      -0.02252245       0.04306058      -0.00575035
Mg       4.99961765       5.32603784       3.84636639      -0.00539380      -0.01408928       0.04682695
Mg       3.26816612       1.72586617       6.40886070      -0.01297576      -0.04135739      -0.01996913
Mg      -1.02309392       5.61418578       3.43146438       0.03939182       0.01232882      -0.02096211
Mg       4.33061243       6.99277440       0.70970593       0.04253330      -0.00907361      -0.02433108
Mg       1.25579634       5.62643592       0.94505441       0.04679876      -0.00100743      -0.00427328
N       -2.10526288       3.64659246      -1.48864966      -0.00000166      -0.00005505      -0.00001777
N        4.21066546       0.00006585      -1.48865204      -0.00000692      -0.00000557      -0.00002000
N        8.42135158       0.00020069       1.48876351       0.00004852       0.00001581       0.00000247
N        2.10543992       3.64669800       1.48876643      -0.00003275       0.00003216      -0.00002443
N       -0.92156778       5.24308113       1.30351608       0.00038873      -0.00061722       0.00051810
N       -2.89586467       5.46998027       4.65137214       0.00003361      -0.00018255       0.00029780
N        6.44704518       0.22709510       4.28088324       0.00047386       0.00014034       0.00007673
N        2.89611294       1.82342178       4.28087595      -0.00038741      -0.00026988      -0.00001972
N        4.07974682       3.41982137      -1.30337563       0.00004004      -0.00096022       0.00064363
N        3.02711818       5.69685742      -4.28070904      -0.00036851      -0.00021457      -0.00001132
N        5.13244458       2.05034839       1.67401260      -0.00041690       0.00056527      -0.00051850
N        7.10672577       1.82344247      -1.67385940       0.00004590       0.00021036      -0.00025898
N       -2.23618934       7.06633632      -1.30335681      -0.00040188      -0.00014078      -0.00007431
N        1.31475305       5.46998857      -1.30335002       0.00035861       0.00033023       0.00003804
N        0.13112067       3.87360720       4.28088968      -0.00005695       0.00089841      -0.00060387
N        1.18375362       1.59656430       7.25822016       0.00030077       0.00025213       0.00005828
40
Lattice="8.520412266079436 0.00013324149562216495 -3.0123348811393713 -4.260081659782255 7.3789647246784655 -3.0123354695412132 7.999112894657693e-05 0.00013961935129937135 9.037229003141796" Properties=species:S:1:pos:R:3:forces:R:3 energy=-154818.503820274 free_energy=-154818.503820274 pbc="T T T"
Mg      -0.79800890       1.99057148      -0.87907585      -0.02386760      -0.01240397      -0.06118310
Mg      -0.82512902       5.43558160      -0.95601766       0.01309721      -0.04957948       0.04554094
Mg       6.35598138       0.25722816       2.05648252       0.03685667       0.03449574       0.04329063
Mg       1.92736225       3.43256783      -0.71778042       0.05073287      -0.03556438       0.01844066
Mg      -0.00706722       3.38543004       2.13337920      -0.00207856       0.02882327      -0.06210027
Mg       2.27127739       0.04716399      -0.45937111       0.01977946      -0.06360056      -0.00411915
Mg       0.80527286       2.00318729       5.14575651       0.02593030      -0.01375090      -0.05777331
Mg      -1.80597399       3.64254206       5.30702041       0.00161343       0.06303943       0.01897049
Mg       0.95378683       5.63307335      -3.47172169       0.04778894       0.04882584      -0.00218824
Mg       5.29553840       1.69898300      -0.45929129      -0.06083178       0.01371385      -0.00184909
Mg      -0.12117048       0.30419140       2.29451341      -0.05859845      -0.02897760       0.02031762
Mg       2.98986149       1.68657802       2.05641245      -0.04730208       0.01265645       0.04478498
Mg       6.06639822       3.73670630      -2.29444940      -0.00170056      -0.06302009      -0.01901594
Mg       3.45509623       5.37605236      -2.13321038      -0.02574779       0.01368255       0.05784209
Mg       1.98914679       7.33207869       3.47191461      -0.01980851       0.06361567       0.00415906
Mg       4.26749516       3.99377146       0.87916984       0.00204270      -0.02865578       0.06215461
Mg       2.33305214       3.94664976       3.73035133      -0.05067312       0.03564357      -0.01848862
Mg      -2.09560474       7.12199887       0.95610372      -0.03677407      -0.03444671      -0.04336878
Mg       5.08555094       1.94368993       3.96860222      -0.01312232       0.04948599      -0.04561551
Mg       5.05844208       5.38870286       3.89162192       0.02374006       0.01227023       0.06124452
Mg       3.30661866       1.74617234       6.48426598      -0.04781347      -0.04885473       0.00220997
Mg      -1.03513142       5.68024108       3.47183825       0.06086933      -0.01369414       0.00187344
Mg       4.38156549       7.07504988       0.71805618       0.05862067       0.02891679      -0.02036670
Mg       1.27057177       5.69263536       0.95617371       0.04723088      -0.01262026      -0.04485303
N       -2.13003295       3.68949749      -1.50616479      -0.00000323      -0.00005864      -0.00001898
N        4.26020724       0.00006663      -1.50616720      -0.00000559      -0.00000416      -0.00001605
N        8.52043539       0.00020305       1.50627998       0.00005001       0.00001776       0.00000142
N        2.13021208       3.68960426       1.50628294      -0.00003411       0.00003402      -0.00002182
N       -0.93241075       5.30477010       1.31885297      -0.00030188       0.00084007       0.00175624
N       -2.92993679       5.53433888       4.70609919      -0.00141125      -0.00016486      -0.00065981
N        6.52289973       0.22976705       4.33125120      -0.00048321      -0.00144587       0.00104704
N        2.93018798       1.84487576       4.33124382       0.00135047      -0.00019746       0.00102777
N        4.12774825       3.46005826      -1.31871087       0.00102179       0.00053555      -0.00062578
N        3.06273460       5.76388542      -4.33107495       0.00016992      -0.00147599      -0.00124633
N        5.19283182       2.07447235       1.69370867       0.00026820      -0.00088513      -0.00175351
N        7.19034198       1.84489671      -1.69355367       0.00148666       0.00019092       0.00069980
N       -2.26249987       7.14947732      -1.31869183       0.00055258       0.00143697      -0.00104479
N        1.33022215       5.53434728      -1.31868496      -0.00136992       0.00026338      -0.00101074
N        0.13266341       3.91918324       4.33125771      -0.00103759      -0.00059962       0.00066554
N        1.19768141       1.61534914       7.34361882      -0.00023704       0.00151228       0.00129271
40
Lattice="8.617243422276244 0.0001347557331580469 -3.046568890044544 -4.308495823290724 7.4628237755686015 -3.0465694851333427 8.090019687187219e-05 0.00014120607067298534 9.13993357961791" Properties=species:S:1:pos:R:3:forces:R:3 energy=-154817.132988476 free_energy=-154817.132988476 pbc="T T T"
Mg      -0.80707796       2.01319355      -0.88906620      -0.04959024      -0.03688659      -0.07230116
Mg      -0.83450628       5.49735486      -0.96688243       0.00419427      -0.05399314       0.08052538
Mg       6.42821462       0.26015145       2.07985364       0.04493648       0.03002989       0.07909191
Mg       1.94926597       3.47157762      -0.72593771       0.08782376      -0.03121731       0.01415482
Mg      -0.00714754       3.42390413       2.15762422      -0.01068985       0.06199343      -0.07421216
Mg       2.29708957       0.04769999      -0.46459168       0.00834773      -0.09139843      -0.02289228
Mg       0.81442447       2.02595273       5.20423602       0.05973058      -0.02421475      -0.06908340
Mg      -1.82649818       3.68393813       5.36733263      -0.02042234       0.09220286       0.01535272
Mg       0.96462624       5.69709103      -3.51117645       0.07825114       0.05488393      -0.02143800
Mg       5.35572013       1.71829128      -0.46451096      -0.07949599       0.03664774      -0.02334916
Mg      -0.12254754       0.30764841       2.32058966      -0.07241008      -0.06241204       0.01671871
Mg       3.02384010       1.70574532       2.07978277      -0.04778038       0.02301016       0.08012211
Mg       6.13534047       3.77917251      -2.32052492       0.02034037      -0.09218518      -0.01539521
Mg       3.49436205       5.43714909      -2.15745348      -0.05956364       0.02415319       0.06914871
Mg       2.01175267       7.41540490       3.51137156      -0.00837004       0.09141580       0.02292284
Mg       4.31599357       4.03915911       0.88916126       0.01065768      -0.06184058       0.07426369
Mg       2.35956636       3.99150189       3.77274532      -0.08776732       0.03129054      -0.01420061
Mg      -2.11942047       7.20293760       0.96696947      -0.04485656      -0.02997960      -0.07916386
Mg       5.14334624       1.96577921       4.01370384      -0.00421516       0.05390124      -0.08059538
Mg       5.11592930       5.44994336       3.93584868       0.04947338       0.03676345       0.07235990
Mg       3.34419709       1.76601691       6.55795712      -0.07827795      -0.05490779       0.02145268
Mg      -1.04689528       5.74479480       3.51129434       0.07953035      -0.03663409       0.02336546
Mg       4.43136027       7.15545506       0.72621660       0.07243075       0.06235466      -0.01676340
Mg       1.28501132       5.75732994       0.96704025       0.04770951      -0.02297669      -0.08018395
N       -2.15423994       3.73142718      -1.52328176      -0.00000274      -0.00006048      -0.00001913
N        4.30862283       0.00006738      -1.52328421      -0.00000466      -0.00000270      -0.00000850
N        8.61726681       0.00020536       1.52339826       0.00005098       0.00001878      -0.00000098
N        2.15442110       3.73153517       1.52340126      -0.00003573       0.00003355      -0.00002177
N       -0.94300723       5.36505674       1.33384121      -0.00064138       0.00136578       0.00193064
N       -2.96323438       5.59723448       4.75958217      -0.00159131      -0.00011268      -0.00088753
N        6.59702993       0.23237827       4.38047417      -0.00108382      -0.00195066       0.00117610
N        2.96348843       1.86584206       4.38046671       0.00174603      -0.00014957       0.00129627
N        4.17465849       3.49938047      -1.33369750       0.00132463       0.00112037      -0.00117497
N        3.09754138       5.82938973      -4.38029592       0.00033551      -0.00181893      -0.00168068
N        5.25184633       2.09804792       1.71295701       0.00060051      -0.00140757      -0.00192990
N        7.27205740       1.86586324      -1.71280024       0.00166517       0.00013861       0.00092986
N       -2.28821229       7.23072834      -1.33367825       0.00115194       0.00193455      -0.00117530
N        1.34533961       5.59724297      -1.33367130      -0.00175979       0.00021962      -0.00128284
N        0.13417108       3.96372322       4.38048076      -0.00134006      -0.00118615       0.00121762
N        1.21129259       1.63370695       7.42707618      -0.00040173       0.00185676       0.00173075
14
Lattice="7.059433488686965 9.097514113881047e-07 0.0 -3.529717654094894 6.113648717662021 -0.0 -0.0 -0.0 2.696947921830024" Properties=species:S:1:pos:R:3:forces:R:3 energy=-59335.7955189004 free_energy=-59335.7955189004 pbc="T T T"
Si      -1.28051598       5.04343112       2.02271094       0.10338276       0.58154234       0.00000005
Si       2.05143629       1.41275711       0.67423698      -0.44765935       0.37227918      -0.00000005
Si       3.72748111       3.63067498       0.67423698       0.55251850       0.19145212      -0.00000006
Si      -0.19776528       2.48297465       2.02271094      -0.55251846      -0.19145249       0.00000004
Si       1.47827955       4.70089252       2.02271094       0.44765855      -0.37227921       0.00000005
Si       4.81023181       1.07021851       0.67423698      -0.10338248      -0.58154248      -0.00000005
N       -0.00000414       4.07576815       2.02271094      -0.00150918      -0.00106913       0.00000001
N        3.52971997       2.03788147       0.67423698       0.00150950       0.00106997      -0.00000001
N        4.47757063       4.09524920       2.02271094       0.47839707       0.01471078       0.00000005
N       -1.30781148       5.92531486       0.67423698       0.22422664       0.42005885      -0.00000005
N        2.25565376       4.28358923       0.67423698       0.25291384      -0.40511104      -0.00000005
N        1.27406207       1.83006040       2.02271094      -0.25291359       0.40511092       0.00000005
N       -0.94785480       2.01840043       0.67423698      -0.47839716      -0.01471085      -0.00000005
N        4.83752731       0.18833477       2.02271094      -0.22422663      -0.42005898       0.00000005
14
Lattice="7.175182479078202 9.246680201420405e-07 0.0 -3.587592164207121 6.213890283477479 -0.0 -0.0 -0.0 2.7411680422674265" Properties=species:S:1:pos:R:3:forces:R:3 energy=-59339.011815942 free_energy=-59339.011815942 pbc="T T T"
Si      -1.30151177       5.12612502       2.05587603       0.08507049       0.46324170       0.00000006
Si       2.08507237       1.43592118       0.68529201      -0.35866974       0.29295345      -0.00000006
Si       3.78859823       3.69020482       0.68529201       0.44338917       0.15180418      -0.00000006
Si      -0.20100791       2.52368639       2.05587603      -0.44338921      -0.15180449       0.00000006
Si       1.50251795       4.77797003       2.05587603       0.35866937      -0.29295392       0.00000005
Si       4.88910209       1.08776619       0.68529201      -0.08507051      -0.46324188      -0.00000005
N       -0.00000421       4.14259590       2.05587603      -0.00067465      -0.00127240       0.00000001
N        3.58759452       2.07129530       0.68529201       0.00067528       0.00127294      -0.00000001
N        4.55098648       4.16239637       2.05587603       0.36899537       0.00650957       0.00000006
N       -1.32925482       6.02246843       0.68529201       0.17657641       0.32365923      -0.00000006
N        2.29263827       4.35382449       0.68529201       0.19266094      -0.31509089      -0.00000006
N        1.29495205       1.86006672       2.05587603      -0.19266096       0.31509084       0.00000006
N       -0.96339616       2.05149484       0.68529201      -0.36899550      -0.00650970      -0.00000006
N        4.91684514       0.19142277       2.05587603      -0.17657647      -0.32365862       0.00000006
14
Lattice="7.287312816758325 9.391182919843057e-07 0.0 -3.6436573474974545 6.310998004127822 -0.0 -0.0 -0.0 2.7840057121265063" Properties=species:S:1:pos:R:3:forces:R:3 energy=-59341.3590682157 free_energy=-59341.3590682157 pbc="T T T"
Si      -1.32185118       5.20623366       2.08800428       0.06768273       0.36317200       0.00000023
Si       2.11765689       1.45836107       0.69600143      -0.27944396       0.22554826      -0.00000023
Si       3.84780464       3.74787359       0.69600143       0.34878495       0.12084614      -0.00000023
Si      -0.20414917       2.56312536       2.08800428      -0.34878498      -0.12084650       0.00000023
Si       1.52599858       4.85263787       2.08800428       0.27944385      -0.22554781       0.00000023
Si       4.96550665       1.10476529       0.69600143      -0.06768260      -0.36317214      -0.00000023
N       -0.00000427       4.20733442       2.08800428       0.00044889      -0.00136659       0.00000003
N        3.64365974       2.10366452       0.69600143      -0.00044901       0.00136712      -0.00000003
N        4.62210713       4.22744432       2.08800428       0.27401626      -0.00050468       0.00000026
N       -1.35002779       6.11658471       0.69600143       0.13572935       0.23918342      -0.00000026
N        2.32846653       4.42186399       0.69600143       0.13900051      -0.23740019      -0.00000026
N        1.31518894       1.88913496       2.08800428      -0.13900042       0.23740014       0.00000026
N       -0.97845166       2.08355463       0.69600143      -0.27401629       0.00050465      -0.00000026
N        4.99368325       0.19441424       2.08800428      -0.13572928      -0.23918383       0.00000026
14
Lattice="7.39609471740741 9.531370496944788e-07 0.0 -3.6980483118407546 6.405205893255737 -0.0 -0.0 -0.0 2.8255641631493003" Properties=species:S:1:pos:R:3:forces:R:3 energy=-59342.9950014158 free_energy=-59342.9950014158 pbc="T T T"
Si      -1.34158321       5.28395010       2.11917312       0.05187725       0.27719606       0.00000007
Si       2.14926837       1.48013086       0.70639104      -0.21066152       0.16815082      -0.00000007
Si       3.90524302       3.80382025       0.70639104       0.26524530       0.09295096      -0.00000007
Si      -0.20719662       2.60138660       2.11917312      -0.26524495      -0.09295113       0.00000007
Si       1.54877804       4.92507598       2.11917312       0.21066125      -0.16815045       0.00000007
Si       5.03962962       1.12125675       0.70639104      -0.05187756      -0.27719607      -0.00000007
N       -0.00000434       4.27013972       2.11917312       0.00106441      -0.00149952       0.00000001
N        3.69805074       2.13506713       0.70639104      -0.00106403       0.00149942      -0.00000001
N        4.69110398       4.29054980       2.11917312       0.19246622      -0.00791503       0.00000006
N       -1.37018042       6.20789048       0.70639104       0.10192275       0.16422256      -0.00000006
N        2.36322489       4.48787169       0.70639104       0.09054050      -0.17114978      -0.00000006
N        1.33482152       1.91733516       2.11917312      -0.09054070       0.17114985       0.00000006
N       -0.99305757       2.11465704       0.70639104      -0.19246617       0.00791516      -0.00000006
N        5.06822683       0.19731637       2.11917312      -0.10192276      -0.16422284       0.00000006
14
Lattice="7.501767490327899 9.667551331375444e-07 0.0 -3.7508847119190825 6.496721198795829 -0.0 -0.0 -0.0 2.8659348197719097" Properties=species:S:1:pos:R:3:forces:R:3 energy=-59344.0475638685 free_energy=-59344.0475638685 pbc="T T T"
Si      -1.36075127       5.35944530       2.14945111       0.03669300       0.20303231       0.00000502
Si       2.17997635       1.50127845       0.71648370      -0.15362260       0.11668033      -0.00000374
Si       3.96103975       3.85816788       0.71648370       0.19152359       0.06760675       0.00000037
Si      -0.21015697       2.63855429       2.14945111      -0.19152356      -0.06760690      -0.00000036
Si       1.57090643       4.99544372       2.14945111       0.15362266      -0.11668034       0.00000375
Si       5.11163405       1.13727687       0.71648370      -0.03669313      -0.20303233      -0.00000502
N       -0.00000440       4.33114996       2.14945111       0.00066275      -0.00164949       0.00020027
N        3.75088718       2.16557221       0.71648370      -0.00066277       0.00164944      -0.00020028
N        4.75812880       4.35185165       2.14945111       0.12133023      -0.01555617       0.00000073
N       -1.38975708       6.29658661       0.71648370       0.07293867       0.09732900      -0.00000058
N        2.39698980       4.55199280       0.71648370       0.04731971      -0.11347221      -0.00000017
N        1.35389298       1.94472936       2.14945111      -0.04731989       0.11347238       0.00000017
N       -1.00724602       2.14487051       0.71648370      -0.12133004       0.01555634      -0.00000073
N        5.14063985       0.20013556       2.14945111      -0.07293862      -0.09732912       0.00000058
14
Lattice="7.6045442 9.8e-07 0.0 -3.80227308 6.58572844 -0.0 -0.0 -0.0 2.90519908" Properties=species:S:1:pos:R:3:forces:R:3 energy=-59344.620807661 free_energy=-59344.620807661 pbc="T T T"
Si      -1.37939402       5.43287148       2.17889931       0.02170465       0.13950071      -0.00000047
Si       2.20984275       1.52184646       0.72629977      -0.10610987       0.07139090       0.00000049
Si       4.01530731       3.91102606       0.72629977       0.12687796       0.04775715       0.00000052
Si      -0.21303619       2.67470336       2.17889931      -0.12687796      -0.04775716      -0.00000046
Si       1.59242837       5.06388296       2.17889931       0.10610988      -0.07139090      -0.00000048
Si       5.18166514       1.15285794       0.72629977      -0.02170465      -0.13950071       0.00000056
N       -0.00000446       4.39048815       2.17889931       0.00010122      -0.00108933      -0.00000373
N        3.80227558       2.19524127       0.72629977      -0.00010121       0.00108933       0.00000319
N        4.82331675       4.41147347       2.17889931       0.05945157      -0.02389364      -0.00000077
N       -1.40879721       6.38285194       0.72629977       0.04952601       0.03847860       0.00000093
N        2.42982936       4.61435662       0.72629977       0.00833579      -0.06402816       0.00000095
N        1.37244176       1.97137280       2.17889931      -0.00833579       0.06402816      -0.00000076
N       -1.02104563       2.17425595       0.72629977      -0.05945157       0.02389364       0.00000094
N        5.21106833       0.20287748       2.17889931      -0.04952601      -0.03847860      -0.00000092
14
Lattice="7.704615467996189 9.92896215743774e-07 0.0 -3.85230872689431 6.6723926999919865 -0.0 -0.0 -0.0 2.943429767871728" Properties=species:S:1:pos:R:3:forces:R:3 energy=-59344.7984902548 free_energy=-59344.7984902548 pbc="T T T"
Si      -1.39754602       5.50436483       2.20757233       0.00754478       0.08476679      -0.00000013
Si       2.23892296       1.54187305       0.73585744      -0.06536180       0.03394252       0.00000013
Si       4.06814636       3.96249283       0.73585744       0.07034845       0.03369271       0.00000013
Si      -0.21583962       2.70990086       2.20757233      -0.07034830      -0.03369267      -0.00000013
Si       1.61338378       5.13052064       2.20757233       0.06536199      -0.03394238      -0.00000014
Si       5.24985276       1.16802886       0.73585744      -0.00754492      -0.08476656       0.00000013
N       -0.00000452       4.44826436       2.20757233      -0.00041986      -0.00087073      -0.00000002
N        3.85231126       2.22412934       0.73585744       0.00041991       0.00087042       0.00000002
N        4.88678872       4.46952583       2.20757233       0.00326894      -0.03306003      -0.00000015
N       -1.42733614       6.46684647       0.73585744       0.02927542      -0.01411774       0.00000015
N        2.46180447       4.67507880       0.73585744      -0.02702897      -0.01998152       0.00000015
N        1.39050228       1.99731489       2.20757233       0.02702860       0.01998171      -0.00000015
N       -1.03448198       2.20286786       0.73585744      -0.00326884       0.03306009       0.00000015
N        5.27964288       0.20554723       2.20757233      -0.02927539       0.01411739      -0.00000015
14
Lattice="7.802152600463873 1.005465856645898e-06 0.0 -3.9010773056977928 6.756862334246788 -0.0 -0.0 -0.0 2.9806923282643623" Properties=species:S:1:pos:R:3:forces:R:3 energy=-59344.6491715667 free_energy=-59344.6491715667 pbc="T T T"
Si      -1.41523836       5.57404773       2.23551925      -0.00562141       0.03609101      -0.00000011
Si       2.26726677       1.56139250       0.74517308      -0.02931078       0.00271923       0.00000011
Si       4.11964735       4.01265629       0.74517308       0.02109734       0.02279332       0.00000011
Si      -0.21857206       2.74420705       2.23551925      -0.02109707      -0.02279331      -0.00000011
Si       1.63380853       5.19547084       2.23551925       0.02931051      -0.00271928      -0.00000011
Si       5.31631365       1.18281561       0.74517308       0.00562154      -0.03609095       0.00000011
N       -0.00000458       4.50457748       2.23551925      -0.00071379      -0.00081269      -0.00000001
N        3.90107987       2.25228586       0.74517308       0.00071401       0.00081274       0.00000001
N        4.94865338       4.52610811       2.23551925      -0.04495055      -0.04196268      -0.00000013
N       -1.44540561       6.54871397       0.74517308       0.01275985      -0.05997475       0.00000013
N        2.49296986       4.73426330       0.74517308      -0.05798536       0.01745415       0.00000013
N        1.40810544       2.02260004       2.23551925       0.05798523      -0.01745406      -0.00000013
N       -1.04757808       2.23075523       0.74517308       0.04495029       0.04196252       0.00000013
N        5.34648090       0.20814937       2.23551925      -0.01275981       0.05997474      -0.00000013
14
Lattice="7.897310181153206 1.0177288439628166e-06 0.0 -3.948656108305447 6.839271216218616 -0.0 -0.0 -0.0 3.0170458175206516" Properties=species:S:1:pos:R:3:forces:R:3 energy=-59344.2300225823 free_energy=-59344.2300225823 pbc="T T T"
Si      -1.43249906       5.64203062       2.26278436      -0.01772512      -0.00724278      -0.00000002
Si       2.29491909       1.58043575       0.75426145       0.00190999      -0.02458881       0.00000002
Si       4.16989190       4.06159595       0.75426145      -0.02109553       0.01227381       0.00000002
Si      -0.22123783       2.77767628       2.26278436       0.02109563      -0.01227375      -0.00000003
Si       1.65373498       5.25883648       2.26278436      -0.00190997       0.02458883      -0.00000002
Si       5.38115314       1.19724161       0.75426145       0.01772493       0.00724283       0.00000002
N       -0.00000463       4.55951676       2.26278436      -0.00058687      -0.00080547      -0.00000001
N        3.94865870       2.27975547       0.75426145       0.00058696       0.00080546       0.00000001
N        5.00900876       4.58130999       2.26278436      -0.08789056      -0.05059362      -0.00000002
N       -1.46303424       6.62858421       0.75426145      -0.00121106      -0.10129143       0.00000003
N        2.52337492       4.79200391       0.75426145      -0.08640502       0.05050312       0.00000003
N        1.42527915       2.04726833       2.26278436       0.08640511      -0.05050321      -0.00000002
N       -1.06035468       2.25796224       0.75426145       0.08789040       0.05059355       0.00000003
N        5.41168831       0.21068802       2.26278436       0.00121109       0.10129148      -0.00000003
14
Lattice="7.990228236991248 1.0297032230086086e-06 0.0 -3.9951151481988467 6.919740612783119 -0.0 -0.0 -0.0 3.0525437307731074" Properties=species:S:1:pos:R:3:forces:R:3 energy=-59343.5898498074 free_energy=-59343.5898498074 pbc="T T T"
Si      -1.44935354       5.70841354       2.28940780      -0.02987639      -0.04415460      -0.00000006
Si       2.32192061       1.59903082       0.76313593       0.02690463      -0.05076855       0.00000006
Si       4.21895396       4.10938382       0.76313593      -0.05608761       0.00333997       0.00000006
Si      -0.22384087       2.81035783       2.28940780       0.05608747      -0.00334025      -0.00000006
Si       1.67319247       5.32071082       2.28940780      -0.02690442       0.05076863      -0.00000006
Si       5.44446663       1.21132810       0.76313593       0.02987626       0.04415469       0.00000006
N       -0.00000469       4.61316306       2.28940780      -0.00028203      -0.00080580      -0.00000001
N        3.99511777       2.30657858       0.76313593       0.00028219       0.00080589       0.00000001
N        5.06794368       4.63521270       2.28940780      -0.12471440      -0.05834206      -0.00000008
N       -1.48024799       6.70657471       0.76313593      -0.01261047      -0.13710248       0.00000008
N        2.55306441       4.84838560       0.76313593      -0.11150816       0.07863569       0.00000008
N        1.44204868       2.07135605       2.28940780       0.11150805      -0.07863571      -0.00000008
N       -1.07283059       2.28452894       0.76313593       0.12471443       0.05834212       0.00000008
N        5.47536108       0.21316693       2.28940780       0.01261044       0.13710246      -0.00000008
14
Lattice="8.081034058857925 1.0414053977989588e-06 0.0 -4.04051807083436 6.998380761075629 -0.0 -0.0 -0.0 3.087234697543438" Properties=species:S:1:pos:R:3:forces:R:3 energy=-59342.7694715194 free_energy=-59342.7694715194 pbc="T T T"
Si      -1.46582488       5.77328743       2.31542602      -0.04078692      -0.07421933      -0.00000002
Si       2.34830833       1.61720318       0.77180867       0.04655224      -0.07561016       0.00000001
Si       4.26690072       4.15608536       0.77180867      -0.08513565      -0.00356678       0.00000002
Si      -0.22638473       2.84229645       2.31542602       0.08513558       0.00356667      -0.00000001
Si       1.69220765       5.38117862       2.31542602      -0.04655202       0.07561020      -0.00000001
Si       5.50634086       1.22509437       0.77180867       0.04078707       0.07421946       0.00000001
N       -0.00000474       4.66558986       2.31542602       0.00013561      -0.00067885      -0.00000001
N        4.04052073       2.33279195       0.77180867      -0.00013570       0.00067873       0.00000000
N        5.12553888       4.68789009       2.31542602      -0.15626055      -0.06587221      -0.00000002
N       -1.49707043       6.78279231       0.77180867      -0.02143508      -0.16834805       0.00000002
N        2.58207899       4.90348560       0.77180867      -0.13433756       0.10214389       0.00000002
N        1.45843700       2.09489620       2.31542602       0.13433745      -0.10214383      -0.00000002
N       -1.08502289       2.31049172       0.77180867       0.15626049       0.06587217       0.00000002
N        5.53758642       0.21558949       2.31542602       0.02143504       0.16834809      -0.00000002
16
Lattice="4.546805231703279 0.007966563145038292 -0.9370778930272992 -1.6839500667092904 4.236966607637064 -0.8741016233692981 -0.00321857981218144 -0.0037698891674826326 8.12878245092722" Properties=species:S:1:pos:R:3:forces:R:3 energy=-70820.9975704887 free_energy=-70820.9975704887 pbc="T T T"
P        0.24245346       2.04371866       5.45680967       0.72473786       1.06820075      -0.45792712
P        0.58824002       2.80674283       2.68563626       1.03984875      -1.10056463       0.88264257
P        1.16453899       0.29481292       7.35414348       1.67405481      -0.14391908       0.48284421
P        2.27139657       1.43442045       3.63196668      -1.03984904       1.10056385      -0.88264265
P        1.69509759       3.94635036      -1.03654054      -1.67405420       0.14391892      -0.48284453
P        2.61718313       2.19744462       0.86079326      -0.72473776      -1.06820104       0.45792791
N        1.93395261       2.12271765       2.24317365       1.47398295      -0.65173898      -0.76205858
N        0.97661132       0.97268711       6.09188584       2.76399548      -2.30936958      -3.34132326
N        0.92568397       2.11844563       4.07442929      -1.47398228       0.65173868       0.76205804
N        2.37311283       0.89720513       0.06506783      -0.92342819       1.46783246       0.41507670
N        3.35726078       2.08797926       4.32614465      -1.95624783       3.50616788       2.83031187
N        1.88302527       3.26847617       0.22571710      -2.76399566       2.30936993       3.34132296
N        2.27179333       0.00209833       3.59585228       0.00000000       0.00000114       0.00000003
N        0.48652376       3.34395815       6.25253510       0.92342800      -1.46783222      -0.41507656
N       -0.49762419       2.15318402       1.99145829       1.95624750      -3.50616795      -2.83031189
N        0.00000000       0.00000000       0.00000000      -0.00000041      -0.00000012       0.00000031
16
Lattice="4.621356272649928 0.0080971857569524 -0.9524425565246858 -1.711560712861452 4.3064374239485 -0.8884337054785036 -0.003271352795219051 -0.0038317016154251283 8.262064868462941" Properties=species:S:1:pos:R:3:forces:R:3 energy=-70825.1983093487 free_energy=-70825.1983093487 pbc="T T T"
P        0.24642881       2.07722820       5.54628147       0.52681314       0.77142371      -0.32985938
P        0.59788501       2.85276319       2.72967091       0.73496006      -0.80692860       0.65871643
P        1.18363319       0.29964678       7.47472464       1.21459076      -0.07690792       0.35917780
P        2.30863920       1.45793972       3.69151770      -0.73495983       0.80692820      -0.65871674
P        1.72289102       4.01105613      -1.05353603      -1.21459116       0.07690828      -0.35917850
P        2.66009540       2.23347471       0.87490713      -0.52681318      -0.77142339       0.32985951
N        1.96566239       2.15752248       2.27995352       1.10563813      -0.49737450      -0.56332175
N        0.99262418       0.98863564       6.19177057       2.16818768      -1.77174193      -2.60930468
N        0.94086182       2.15318042       4.14123508      -1.10563835       0.49737460       0.56332199
N        2.41202323       0.91191603       0.06613471      -0.70235745       1.09525588       0.30994152
N        3.41230762       2.12221452       4.39707766      -1.50690695       2.75226184       2.18899047
N        1.91390002       3.32206727       0.22941803      -2.16818738       1.77174131       2.60930549
N        2.30904246       0.00213274       3.65481116       0.00000001       0.00000039       0.00000004
N        0.49450097       3.39878688       6.35505390       0.70235781      -1.09525602      -0.30994159
N       -0.50578341       2.18848839       2.02411095       1.50690671      -2.75226186      -2.18899059
N        0.00000000       0.00000000       0.00000000      -0.00000002       0.00000002      -0.00000003
16
Lattice="4.693576629540275 0.008223724723150567 -0.9673268756058296 -1.7383081692854234 4.373736378916361 -0.9023177246922569 -0.00332247594012419 -0.0038915816250666797 8.391180486962842" Properties=species:S:1:pos:R:3:forces:R:3 energy=-70828.2833513295 free_energy=-70828.2833513295 pbc="T T T"
P        0.25027988       2.10969014       5.63295612       0.34793530       0.50562842      -0.21517421
P        0.60722847       2.89734481       2.77232891       0.46441266      -0.53966029       0.46606183
P        1.20213044       0.30432951       7.59153608       0.80470556      -0.02017836       0.25181010
P        2.34471751       1.48072371       3.74920698      -0.46441244       0.53966014      -0.46606181
P        1.74981554       4.07373901      -1.07000019      -0.80470542       0.02017859      -0.25181066
P        2.70166610       2.26837839       0.88857977      -0.34793539      -0.50562894       0.21517394
N        1.99638083       2.19123922       2.31558355       0.78436220      -0.36246144      -0.39406231
N        1.00813644       1.00408557       6.28853262       1.66582656      -1.31653372      -1.99014670
N        0.95556516       2.18682930       4.20595234      -0.78436260       0.36246155       0.39406229
N        2.44971718       0.92616702       0.06716823      -0.50817675       0.77237972       0.22103487
N        3.46563354       2.15537948       4.46579309      -1.12595800       2.11686636       1.64668436
N        1.94380954       3.37398296       0.23300327      -1.66582653       1.31653355       1.99014696
N        2.34512708       0.00216607       3.71192681       0.00000001       0.00000007       0.00000002
N        0.50222880       3.45190150       6.45436765       0.50817694      -0.77237920      -0.22103452
N       -0.51368756       2.22268905       2.05574279       1.12595819      -2.11686634      -1.64668436
N        0.00000000       0.00000000       0.00000000      -0.00000030      -0.00000010       0.00000021
16
Lattice="4.763640341561716 0.00834648498173888 -0.9817667190327998 -1.764256892954022 4.439025651958466 -0.9157871392143914 -0.0033720724452716575 -0.003949673497386512 8.516440453841467" Properties=species:S:1:pos:R:3:forces:R:3 energy=-70830.4579366187 free_energy=-70830.4579366187 pbc="T T T"
P        0.25401595       2.14118269       5.71704249       0.18200148       0.26295484      -0.11100973
P        0.61629292       2.94059514       2.81371305       0.22139264      -0.29319571       0.29995259
P        1.22007534       0.30887242       7.70485929       0.43629793       0.03378209       0.16046984
P        2.37971845       1.50282732       3.80517354      -0.22139264       0.29319531      -0.29995237
P        1.77593604       4.13455005      -1.08597270      -0.43629809      -0.03378238      -0.16046964
P        2.74199542       2.30223977       0.90184411      -0.18200177      -0.26295424       0.11100924
N        2.02618195       2.22394911       2.35014960       0.50322252      -0.24374581      -0.25046627
N        1.02318547       1.01907413       6.38240515       1.24261487      -0.93162620      -1.46709598
N        0.96982943       2.21947336       4.26873700      -0.50322270       0.24374575       0.25046613
N        2.48628552       0.93999244       0.06817089      -0.33645608       0.49215001       0.14643632
N        3.51736704       2.18755406       4.53245655      -0.80368755       1.58196739       1.18866415
N        1.97282590       3.42434834       0.23648144      -1.24261447       0.93162554       1.46709650
N        2.38013414       0.00219840       3.76733687      -0.00000002       0.00000050      -0.00000000
N        0.50972586       3.50343002       6.55071571       0.33645575      -0.49214982      -0.14643646
N       -0.52135567       2.25586840       2.08643004       0.80368782      -1.58196736      -1.18866407
N        0.00000000       0.00000000       0.00000000       0.00000033       0.00000010      -0.00000024
16
Lattice="4.831701541873817 0.008465736593009313 -0.9957938530170456 -1.789463968464257 4.502448872946104 -0.9288715804098159 -0.0034202514180127663 -0.004006105028694119 8.638120328499038" Properties=species:S:1:pos:R:3:forces:R:3 energy=-70831.8881422784 free_energy=-70831.8881422784 pbc="T T T"
P        0.25764524       2.17177515       5.79872556       0.02907148       0.04105482      -0.01677108
P        0.62509830       2.98260932       2.85391438       0.00462858      -0.06917774       0.15744408
P        1.23750734       0.31328547       7.81494358       0.10806378       0.08778333       0.08710694
P        2.41371903       1.52429918       3.85954051      -0.00462879       0.06917751      -0.15744376
P        1.80130998       4.19362303      -1.10148869      -0.10806376      -0.08778328      -0.08710687
P        2.78117208       2.33513336       0.91472933      -0.02907133      -0.04105525       0.01677121
N        2.05513132       2.25572410       2.38372770       0.25654400      -0.13922323      -0.13011025
N        1.03780438       1.03363430       6.47359469       0.88754393      -0.60691473      -1.02705122
N        0.98368600       2.25118440       4.32972720      -0.25654372       0.13922314       0.13010979
N        2.52180868       0.95342272       0.06914489      -0.18336220       0.24910644       0.08510617
N        3.56762193       2.21880906       4.59721468      -0.53245722       1.13301397       0.80271844
N        2.00101294       3.47327421       0.23986021      -0.88754405       0.60691487       1.02705104
N        2.41414065       0.00222981       3.82116324       0.00000003       0.00000042       0.00000001
N        0.51700864       3.55348578       6.64431000       0.18336226      -0.24910620      -0.08510600
N       -0.52880461       2.28809945       2.11624022       0.53245703      -1.13301404      -0.80271853
N        0.00000000       0.00000000       0.00000000      -0.00000003      -0.00000004       0.00000003
16
Lattice="4.89789746 0.00858172 -1.00943656 -1.81398022 4.56413392 -0.94159743 -0.00346711 -0.00406099 8.75646545" Properties=species:S:1:pos:R:3:forces:R:3 energy=-70832.708333826 free_energy=-70832.708333826 pbc="T T T"
P        0.26117507       2.20152919       5.87817003      -0.10792797      -0.16005989       0.06856651
P        0.63366235       3.02347206       2.89301396      -0.18502273       0.13325522       0.03616386
P        1.25446160       0.31757759       7.92201091      -0.18270135       0.13804879       0.03131958
P        2.44678778       1.54518259       3.91241750       0.18502272      -0.13325556      -0.03616386
P        1.82598853       4.25107706      -1.11657945       0.18270134      -0.13804879      -0.03131957
P        2.81927506       2.36712546       0.92726143       0.10792799       0.16005989      -0.06856651
N        2.08328730       2.28662827       2.41638556       0.04060894      -0.04683102      -0.02859873
N        1.05202265       1.04779543       6.56228509       0.59187791      -0.33325075      -0.65956033
N        0.99716283       2.28202638       4.38904590      -0.04060892       0.04683093       0.02859874
N        2.55635830       0.96648493       0.07009220      -0.04676938       0.03857307       0.03358337
N        3.61649954       2.24920748       4.66019805      -0.30483744       0.75886106       0.47872226
N        2.02842748       3.52085922       0.24314637      -0.59187791       0.33325075       0.65956033
N        2.44721518       0.00226036       3.87351445      -0.00000001       0.00000044       0.00000000
N        0.52409183       3.60216972       6.73533926       0.04676938      -0.03857308      -0.03358338
N       -0.53604941       2.31944717       2.14523341       0.30483743      -0.75886107      -0.47872227
N        0.00000000       0.00000000       0.00000000      -0.00000000      -0.00000000      -0.00000000
16
Lattice="4.962350870545961 0.008694650318951693 -1.0227201433238906 -1.8378511182367943 4.6241952013426495 -0.9539882908174112 -0.003512735100578975 -0.004114430207319703 8.871695314893982" Properties=species:S:1:pos:R:3:forces:R:3 energy=-70833.0277901895 free_energy=-70833.0277901895 pbc="T T T"
P        0.26461198       2.23050000       5.95552324      -0.22667190      -0.33635990       0.14398416
P        0.64200097       3.06325915       2.93108430      -0.34804178       0.31846995      -0.06662492
P        1.27096957       0.32175672       8.02625985      -0.44273658       0.18004859      -0.00985341
P        2.47898605       1.56551627       3.96390258       0.34804174      -0.31847052       0.06662489
P        1.85001745       4.30701870      -1.13127297       0.44273650      -0.18004846       0.00985357
P        2.85637504       2.39827542       0.93946364       0.22667199       0.33635999      -0.14398412
N        2.11070212       2.31671893       2.44818375      -0.15007322       0.03588359       0.05668096
N        1.06586664       1.06158379       6.64864085       0.34593053      -0.10385587      -0.35295869
N        1.01028490       2.31205649       4.44680313       0.15007325      -0.03588369      -0.05668090
N        2.58999845       0.97920330       0.07101457       0.07657964      -0.14474684      -0.00939897
N        3.66409052       2.27880571       4.72152348      -0.11466643       0.44687654       0.20755069
N        2.05512038       3.56719163       0.24634603      -0.34593057       0.10385592       0.35295866
N        2.47941907       0.00229010       3.92448759       0.00000001       0.00000075       0.00000001
N        0.53098857       3.64957213       6.82397231      -0.07657965       0.14474651       0.00939883
N       -0.54310350       2.34996971       2.17346340       0.11466641      -0.44687658      -0.20755069
N        0.00000000       0.00000000       0.00000000       0.00000008       0.00000001      -0.00000006
16
Lattice="5.025172107533335 0.008804720868668608 -1.0356673423776412 -1.8611175263683821 4.682735532366735 -0.9660653740515571 -0.0035572048226893463 -0.004166517131816761 8.984007178443326" Properties=species:S:1:pos:R:3:forces:R:3 energy=-70832.9369434394 free_energy=-70832.9369434394 pbc="T T T"
P        0.26796185       2.25873718       6.03091762      -0.32874483      -0.48688975       0.20847789
P        0.65012843       3.10203870       2.96819057      -0.48817294       0.49113392      -0.15317558
P        1.28705950       0.32583002       8.12786886      -0.67755842       0.21381488      -0.03913632
P        2.51036895       1.58533504       4.01408389       0.48817252      -0.49113431       0.15317539
P        1.87343788       4.36154371      -1.14559440       0.67755831      -0.21381457       0.03913662
P        2.89253552       2.42863656       0.95135684       0.32874512       0.48688949      -0.20847776
N        2.13742270       2.34604760       2.47917671      -0.31781445       0.11057192       0.12719491
N        1.07936006       1.07502299       6.73280980       0.14379509       0.08779278      -0.10101418
N        1.02307467       2.34132613       4.50309775       0.31781450      -0.11057191      -0.12719485
N        2.62278672       0.99159959       0.07191359       0.18818279      -0.30331259      -0.04460617
N        3.71047633       2.30765441       4.78129594       0.04425410       0.19093658      -0.01700838
N        2.08113732       3.61235075       0.24946467      -0.14379530      -0.08779251       0.10101387
N        2.51080746       0.00231910       3.97416992      -0.00000001       0.00000021      -0.00000000
N        0.53771065       3.69577415       6.91036088      -0.18818269       0.30331226       0.04460599
N       -0.54997896       2.37971932       2.20097852      -0.04425377      -0.19093636       0.01700857
N        0.00000000       0.00000000       0.00000000      -0.00000002      -0.00000004      -0.00000001
16
Lattice="5.086460734504302 0.008912106096747533 -1.0482986767985738 -1.883816318644914 4.739847691931712 -0.9778478203186317 -0.003600589645093797 -0.004217333324535264 9.093579040437596" Properties=species:S:1:pos:R:3:forces:R:3 energy=-70832.5122099779 free_energy=-70832.5122099779 pbc="T T T"
P        0.27123000       2.28628547       6.10447264      -0.41753266      -0.61749150       0.26424399
P        0.65805760       3.13987217       3.00439158      -0.61248494       0.65209538      -0.22673676
P        1.30275689       0.32980395       8.22699898      -0.89072422       0.24336378      -0.05834834
P        2.54098622       1.60467030       4.06304096       0.61248506      -0.65209575       0.22673685
P        1.89628693       4.41473851      -1.15956644       0.89072442      -0.24336356       0.05834836
P        2.92781382       2.45825700       0.96295990       0.41753306       0.61749124      -0.26424389
N        2.16349140       2.37466076       2.50941355      -0.46577125       0.17872403       0.18635515
N        1.09252428       1.08813432       6.81492532      -0.02045199       0.24525853       0.10458877
N        1.03555242       2.36988170       4.55801899       0.46577130      -0.17872402      -0.18635514
N        2.65477508       1.00369346       0.07279067       0.28913716      -0.44112099      -0.07410107
N        3.75573051       2.33579931       4.83961018       0.17466473      -0.01706137      -0.20135158
N        2.10651955       3.65640815       0.25250722       0.02045199      -0.24525861      -0.10458867
N        2.54143008       0.00234738       4.02264019      -0.00000001       0.00000050      -0.00000002
N        0.54426875       3.74084900       6.99464188      -0.28913736       0.44112103       0.07410094
N       -0.55668668       2.40874315       2.22782237      -0.17466522       0.01706134       0.20135139
N        0.00000000       0.00000000       0.00000000      -0.00000007      -0.00000003       0.00000003
16
Lattice="5.146306939313958 0.009016964023425956 -1.0606327339333905 -1.905980896946801 4.795615722109098 -0.9893529678036967 -0.003642953409719773 -0.00426695356286299 9.20057213880462" Properties=species:S:1:pos:R:3:forces:R:3 energy=-70831.8180493516 free_energy=-70831.8180493516 pbc="T T T"
P        0.27442124       2.31318541       6.17629656      -0.49483045      -0.73322896       0.31341085
P        0.66580017       3.17681523       3.03974061      -0.72266844       0.79874407      -0.28785355
P        1.31808485       0.33368436       8.32379609      -1.08191439       0.26954533      -0.06671601
P        2.57088292       1.62355050       4.11084583       0.72266834      -0.79874426       0.28785338
P        1.91859824       4.46668138      -1.17320965       1.08191438      -0.26954552       0.06671597
P        2.96226185       2.48718032       0.97428988       0.49483027       0.73322913      -0.31341097
N        2.18894658       2.40260051       2.53893877      -0.59632059       0.24115896       0.23451117
N        1.10537869       1.10093707       6.89510827      -0.15096220       0.37283583       0.26767109
N        1.04773651       2.39776522       4.61164766       0.59632050      -0.24115904      -0.23451098
N        2.68601059       1.01550270       0.07364711       0.38119294      -0.55998153      -0.09791539
N        3.79991962       2.36328183       4.89655199       0.28045636      -0.18130574      -0.34914559
N        2.13130440       3.69942866       0.25547816       0.15096226      -0.37283591      -0.26767095
N        2.57133200       0.00237500       4.06996971      -0.00000003       0.00000018      -0.00000002
N        0.55067250       3.78486303       7.07693933      -0.38119302       0.55998161       0.09791536
N       -0.56323654       2.43708390       2.25403445      -0.28045598       0.18130582       0.34914568
N        0.00000000       0.00000000       0.00000000       0.00000004       0.00000004      -0.00000003
16
Lattice="5.204792706846746 0.009119438296325798 -1.072686410530217 -1.9276416251107582 4.850116020985022 -1.0005965777098238 -0.003684354151798723 -0.004315445822864893 9.30513304619397" Properties=species:S:1:pos:R:3:forces:R:3 energy=-70830.9084461744 free_energy=-70830.9084461744 pbc="T T T"
P        0.27753993       2.33947386       6.24648775      -0.56296179      -0.83692018       0.35776744
P        0.67336673       3.21291849       3.07428608      -0.81740609       0.93089452      -0.33620772
P        1.33306437       0.33747655       8.41839278      -1.25088603       0.29095632      -0.06460746
P        2.60010000       1.64200152       4.15756398       0.81740612      -0.93089460       0.33620770
P        1.94040236       4.51744347      -1.18654272       1.25088592      -0.29095649       0.06460723
P        2.99592680       2.51544615       0.98536230       0.56296172       0.83692034      -0.35776727
N        2.21382310       2.42990513       2.56779282      -0.70992466       0.29892248       0.27508208
N        1.11794088       1.11344879       6.97346848      -0.25373095       0.47441133       0.39644405
N        1.05964363       2.42501489       4.66405724       0.70992472      -0.29892260      -0.27508214
N        2.71653605       1.02704349       0.07448408       0.46456737      -0.66182445      -0.11938546
N        3.84310423       2.39013960       4.95219939       0.36447873      -0.31027907      -0.46653173
N        2.15552584       3.74147122       0.25838157       0.25373107      -0.47441144      -0.39644388
N        2.60055418       0.00240199       4.11622332      -0.00000002       0.00000024      -0.00000000
N        0.55693067       3.82787652       7.15736598      -0.46456726       0.66182456       0.11938550
N       -0.56963750       2.46478041       2.27965067      -0.36447885       0.31027902       0.46653166
N        0.00000000       0.00000000       0.00000000      -0.00000000       0.00000003       0.00000000
32
Lattice="7.607063512218818 -0.0 0.0 -0.0 7.233858465103604 0.0 0.0 0.0 12.151408349079531" Properties=species:S:1:pos:R:3:forces:R:3 energy=-310545.553980094 free_energy=-310545.515698025 pbc="T T T"
S        1.84450493       4.79170431       1.64139475       2.06307797      -1.86700408      -5.81019292
S        1.95902683       1.17477507       4.43430943      -2.06307621      -1.86700916       5.81019399
S        5.76255859       2.44215416       7.71709892      -2.06307958       1.86700352      -5.81018586
S        5.64803668       6.05908340      10.51001360       2.06307765       1.86699861       5.81018044
S        5.76255859       2.44215416      10.51001360      -2.06307954       1.86700351       5.81018588
S        5.64803668       6.05908340       7.71709892       2.06307769       1.86699862      -5.81018042
S        1.84450493       4.79170431       4.43430943       2.06307801      -1.86700410       5.81019289
S        1.95902683       1.17477507       1.64139475      -2.06307616      -1.86700914      -5.81019401
S        0.08952593       5.36714552       1.12422886      -0.62000240       4.11993682      -2.03118328
S        3.71400582       1.75021629       4.95147531       0.61999920       4.11993580       2.03118236
S        7.51753758       1.86671294       7.19993304       0.62000242      -4.11993985      -2.03118128
S        3.89305769       5.48364218      11.02717949      -0.62000230      -4.11993706       2.03117981
S        7.51753758       1.86671294      11.02717949       0.62000240      -4.11993977       2.03118125
S        3.89305769       5.48364218       7.19993304      -0.62000231      -4.11993713      -2.03117984
S        0.08952593       5.36714552       4.95147531      -0.62000242       4.11993690       2.03118331
S        3.71400582       1.75021629       1.12422886       0.61999918       4.11993572      -2.03118234
S        6.44515721       3.96374363       1.50534357      -0.68466027      -4.20336015      -2.86145127
S        4.96543806       0.34681439       4.57036061       0.68465800      -4.20336156       2.86145164
S        1.16190630       3.27011483       7.58104774       0.68466321       4.20336102      -2.86145234
S        2.64162546       6.88704407      10.64606478      -0.68466130       4.20335738       2.86145194
S        1.16190630       3.27011483      10.64606478       0.68466318       4.20336098       2.86145235
S        2.64162546       6.88704407       7.58104774      -0.68466133       4.20335742      -2.86145192
S        6.44515721       3.96374363       4.57036061      -0.68466030      -4.20336020       2.86145126
S        4.96543806       0.34681439       1.50534357       0.68465797      -4.20336152      -2.86145166
S        5.47980243       4.51655299       3.03785209      -4.63097400       2.33835701      -0.00000003
S        5.93079283       0.89962376       3.03785209       4.63096918       2.33835699      -0.00000003
S        2.12726108       2.71730548       9.11355626       4.63097166      -2.33835892       0.00000004
S        1.67627068       6.33423470       9.11355626      -4.63097422      -2.33835901       0.00000004
N        2.26126269       5.08095411       3.03785209       3.16473702       1.64005881      -0.00000002
N        1.54226907       1.46402488       3.03785209      -3.16472795       1.64004521      -0.00000002
N        5.34580082       2.15290435       9.11355626      -3.16471348      -1.64002534       0.00000002
N        6.06479444       5.76983359       9.11355626       3.16471903      -1.64003730       0.00000002
32
Lattice="7.731791639878409 -0.0 0.0 -0.0 7.35246738964559 0.0 0.0 0.0 12.350647176174029" Properties=species:S:1:pos:R:3:forces:R:3 energy=-310549.994824071 free_energy=-310549.954712273 pbc="T T T"
S        1.87474809       4.87027080       1.66830764       1.59265534      -1.40435547      -4.47698367
S        1.99114773       1.19403710       4.50701595      -1.59265651      -1.40435282       4.47698286
S        5.85704355       2.48219659       7.84363123      -1.59265085       1.40435347      -4.47698695
S        5.74064391       6.15843029      10.68233954       1.59265105       1.40435271       4.47698696
S        5.85704355       2.48219659      10.68233954      -1.59265095       1.40435337       4.47698655
S        5.74064391       6.15843029       7.84363123       1.59265094       1.40435281      -4.47698736
S        1.87474809       4.87027080       4.50701595       1.59265546      -1.40435538       4.47698328
S        1.99114773       1.19403710       1.66830764      -1.59265640      -1.40435291      -4.47698325
S        0.09099383       5.45514716       1.14266212      -0.47881777       3.19374751      -1.57738447
S        3.77490199       1.77891346       5.03266147       0.47881912       3.19374844       1.57738494
S        7.64079781       1.89732023       7.31798571       0.47881672      -3.19374678      -1.57738359
S        3.95688965       5.57355393      11.20798506      -0.47881770      -3.19374734       1.57738400
S        7.64079781       1.89732023      11.20798506       0.47881673      -3.19374673       1.57738354
S        3.95688965       5.57355393       7.31798571      -0.47881769      -3.19374740      -1.57738405
S        0.09099383       5.45514716       5.03266147      -0.47881776       3.19374748       1.57738443
S        3.77490199       1.77891346       1.14266212       0.47881912       3.19374847      -1.57738498
S        6.55083431       4.02873459       1.53002572      -0.53344538      -3.27991580      -2.20985755
S        5.04685315       0.35250089       4.64529787       0.53344621      -3.27991607       2.20985726
S        1.18095733       3.32373280       7.70534930       0.53344501       3.27991457      -2.20985488
S        2.68493849       6.99996650      10.82062146      -0.53344492       3.27991417       2.20985444
S        1.18095733       3.32373280      10.82062146       0.53344499       3.27991454       2.20985487
S        2.68493849       6.99996650       7.70534930      -0.53344494       3.27991420      -2.20985445
S        6.55083431       4.02873459       4.64529787      -0.53344548      -3.27991573       2.20985743
S        5.04685315       0.35250089       1.53002572       0.53344612      -3.27991614      -2.20985738
S        5.56965123       4.59060800       3.08766179      -3.58115384       1.83810390       0.00000015
S        6.02803623       0.91437431       3.08766179       3.58115393       1.83810372       0.00000016
S        2.16214041       2.76185939       9.26298538       3.58115122      -1.83810354       0.00000001
S        1.70375541       6.43809308       9.26298538      -3.58115069      -1.83810365       0.00000002
N        2.29833916       5.16426325       3.08766179       2.46057434       1.19510601       0.00000042
N        1.56755666       1.48802955       3.08766179      -2.46057670       1.19510675       0.00000042
N        5.43345248       2.18820414       9.26298538      -2.46057345      -1.19510280       0.00000041
N        6.16423498       5.86443784       9.26298538       2.46057473      -1.19510357       0.00000041
32
Lattice="7.852620400677159 -0.0 0.0 -0.0 7.467368251552167 0.0 0.0 0.0 12.543657213545282" Properties=species:S:1:pos:R:3:forces:R:3 energy=-310553.28510852 free_energy=-310553.242940615 pbc="T T T"
S        1.90404576       4.94638107       1.69437916       1.18495503      -1.01568585      -3.34847427
S        2.02226444       1.21269694       4.57744945      -1.18495477      -1.01568517       3.34847312
S        5.94857464       2.52098718       7.96620776      -1.18493821       1.01568427      -3.34849163
S        5.83035596       6.25467131      10.84927806       1.18493852       1.01568763       3.34849282
S        5.94857464       2.52098718      10.84927806      -1.18493822       1.01568421       3.34849089
S        5.83035596       6.25467131       7.96620776       1.18493851       1.01568770      -3.34849356
S        1.90404576       4.94638107       4.57744945       1.18495511      -1.01568584       3.34847466
S        2.02226444       1.21269694       1.69437916      -1.18495470      -1.01568518      -3.34847273
S        0.09241584       5.54039760       1.16051910      -0.35926317       2.39956380      -1.19200885
S        3.83389436       1.80671347       5.11130951       0.35926228       2.39956297       1.19200852
S        7.76020456       1.92697065       7.43234771       0.35925744      -2.39956384      -1.19198876
S        4.01872604       5.66065478      11.38313811      -0.35925650      -2.39956385       1.19198808
S        7.76020456       1.92697065      11.38313811       0.35925750      -2.39956386       1.19198829
S        4.01872604       5.66065478       7.43234771      -0.35925644      -2.39956383      -1.19198854
S        0.09241584       5.54039760       5.11130951      -0.35926311       2.39956375       1.19200927
S        3.83389436       1.80671347       1.16051910       0.35926234       2.39956302      -1.19200810
S        6.65320763       4.09169373       1.55393623      -0.40044902      -2.48705262      -1.66183799
S        5.12572297       0.35800960       4.71789238       0.40044879      -2.48705210       1.66183845
S        1.19941277       3.37567452       7.82576484       0.40045813       2.48704385      -1.66181730
S        2.72689743       7.10935865      10.98972098      -0.40045820       2.48704404       1.66181686
S        1.19941277       3.37567452      10.98972098       0.40045814       2.48704382       1.66181673
S        2.72689743       7.10935865       7.82576484      -0.40045820       2.48704408      -1.66181743
S        6.65320763       4.09169373       4.71789238      -0.40044909      -2.48705259       1.66183847
S        5.12572297       0.35800960       1.55393623       0.40044872      -2.48705212      -1.66183797
S        5.65669109       4.66234784       3.13591430      -2.68985740       1.41014486       0.00000048
S        6.12223951       0.92866372       3.13591430       2.68985776       1.41014490       0.00000048
S        2.19592931       2.80502041       9.40774291       2.68984885      -1.41014988      -0.00000034
S        1.73038089       6.53870453       9.40774291      -2.68984854      -1.41014997      -0.00000034
N        2.33425651       5.24496790       3.13591430       1.87818082       0.82783830       0.00000107
N        1.59205369       1.51128377       3.13591430      -1.87818076       0.82783869       0.00000107
N        5.51836389       2.22240035       9.40774291      -1.87815616      -0.82781625      -0.00000072
N        6.26056671       5.95608448       9.40774291       1.87815455      -0.82781694      -0.00000072
32
Lattice="7.969840972064874 -0.0 0.0 -0.0 7.578837943011333 0.0 0.0 0.0 12.730903583653358" Properties=species:S:1:pos:R:3:forces:R:3 energy=-310555.643128188 free_energy=-310555.597693125 pbc="T T T"
S        1.93246854       5.02021854       1.71967213       0.83034185      -0.68966368      -2.39073349
S        2.05245194       1.23079957       4.64577966      -0.83034151      -0.68966663       2.39073123
S        6.03737243       2.55861940       8.08512392      -0.83034296       0.68966339      -2.39073674
S        5.91738903       6.34803838      11.01123146       0.83033328       0.68966514       2.39072467
S        6.03737243       2.55861940      11.01123146      -0.83034295       0.68966339       2.39073676
S        5.91738903       6.34803838       8.08512392       0.83033328       0.68966514      -2.39072465
S        1.93246854       5.02021854       4.64577966       0.83034178      -0.68966375       2.39073375
S        2.05245194       1.23079957       1.71967213      -0.83034158      -0.68966656      -2.39073097
S        0.09379539       5.62310229       1.17784283      -0.25802474       1.71923535      -0.86407712
S        3.89112510       1.83368332       5.18760896       0.25802208       1.71923042       0.86407818
S        7.87604559       1.95573565       7.54329463       0.25802470      -1.71923559      -0.86407455
S        4.07871587       5.74515463      11.55306075      -0.25802097      -1.71923094       0.86407033
S        7.87604559       1.95573565      11.55306075       0.25802470      -1.71923559       0.86407457
S        4.07871587       5.74515463       7.54329463      -0.25802097      -1.71923094      -0.86407032
S        0.09379539       5.62310229       5.18760896      -0.25802475       1.71923538       0.86407713
S        3.89112510       1.83368332       1.17784283       0.25802207       1.71923039      -0.86407817
S        6.75252388       4.15277279       1.57713273      -0.28671860      -1.80324450      -1.19345734
S        5.20223758       0.36335382       4.78831906       0.28671795      -1.80324753       1.19345874
S        1.21731709       3.42606515       7.94258452       0.28672191       1.80324583      -1.19345198
S        2.76760339       7.21548413      11.15377086      -0.28671215       1.80324700       1.19345057
S        1.21731709       3.42606515      11.15377086       0.28672191       1.80324583       1.19345200
S        2.76760339       7.21548413       7.94258452      -0.28671216       1.80324700      -1.19345055
S        6.75252388       4.15277279       4.78831906      -0.28671855      -1.80324455       1.19345740
S        5.20223758       0.36335382       1.57713273       0.28671801      -1.80324748      -1.19345867
S        5.74113176       4.73194538       3.18272590      -1.92627212       1.03716050      -0.00000012
S        6.21362969       0.94252642       3.18272590       1.92626928       1.03715793      -0.00000012
S        2.22870921       2.84689256       9.54817769       1.92626942      -1.03715822       0.00000002
S        1.75621128       6.63631153       9.54817769      -1.92626572      -1.03715537       0.00000002
N        2.36910130       5.32326254       3.18272590       1.39571227       0.52308998      -0.00000032
N        1.61581919       1.53384357       3.18272590      -1.39570021       0.52306418      -0.00000032
N        5.60073968       2.25557540       9.54817769      -1.39571178      -0.52308610       0.00000002
N        6.35402178       6.04499437       9.54817769       1.39569724      -0.52306941       0.00000002
32
Lattice="8.083711227575696 -0.0 0.0 -0.0 7.687121686196515 0.0 0.0 0.0 12.912798209786489" Properties=species:S:1:pos:R:3:forces:R:3 energy=-310557.248684194 free_energy=-310557.200773805 pbc="T T T"
S        1.96007897       5.09194564       1.74424219       0.52182995      -0.41320480      -1.56867987
S        2.08177665       1.24838479       4.71215691      -0.52182846      -0.41319813       1.56867459
S        6.12363226       2.59517605       8.20064130      -0.52182804       0.41320023      -1.56867890
S        6.00193458       6.43873689      11.16855602       0.52182880       0.41320442       1.56867658
S        6.12363226       2.59517605      11.16855602      -0.52182804       0.41320023       1.56867891
S        6.00193458       6.43873689       8.20064130       0.52182880       0.41320442      -1.56867658
S        1.96007897       5.09194564       4.71215691       0.52182994      -0.41320480       1.56867986
S        2.08177665       1.24838479       1.74424219      -0.52182846      -0.41319813      -1.56867460
S        0.09513550       5.70344318       1.19467143      -0.17380150       1.13817137      -0.58734437
S        3.94672011       1.85988233       5.26172767       0.17379639       1.13817143       0.58734143
S        7.98857573       1.98367850       7.65107054       0.17379770      -1.13817142      -0.58734378
S        4.13699112       5.82723935      11.71812678      -0.17379658      -1.13816927       0.58734437
S        7.98857573       1.98367850      11.71812678       0.17379770      -1.13817142       0.58734378
S        4.13699112       5.82723935       7.65107054      -0.17379658      -1.13816927      -0.58734436
S        0.09513550       5.70344318       5.26172767      -0.17380150       1.13817137       0.58734437
S        3.94672011       1.85988233       1.19467143       0.17379639       1.13817144      -0.58734144
S        6.84900154       4.21210614       1.59966624      -0.19365290      -1.21560158      -0.78826481
S        5.27656530       0.36854529       4.85673286       0.19365460      -1.21559969       0.78826423
S        1.23470969       3.47501555       8.05606535       0.19365136       1.21559897      -0.78826369
S        2.80714593       7.31857640      11.31313197      -0.19365266       1.21559993       0.78826400
S        1.23470969       3.47501555      11.31313197       0.19365136       1.21559897       0.78826369
S        2.80714593       7.31857640       8.05606535      -0.19365266       1.21559993      -0.78826400
S        6.84900154       4.21210614       4.85673286      -0.19365290      -1.21560158       0.78826481
S        5.27656530       0.36854529       1.59966624       0.19365460      -1.21559968      -0.78826423
S        5.82315901       4.79955374       3.22819955      -1.26816901       0.71272801      -0.00000000
S        6.30240783       0.95599290       3.22819955       1.26816939       0.71272857      -0.00000000
S        2.26055221       2.88756795       9.68459866       1.26816665      -0.71272806      -0.00000000
S        1.78130340       6.73112879       9.68459866      -1.26816808      -0.71272884       0.00000000
N        2.40295017       5.39931943       3.22819955       0.99360411       0.26948311       0.00000000
N        1.63890544       1.55575858       3.22819955      -0.99358701       0.26944974       0.00000000
N        5.68076105       2.28780226       9.68459866      -0.99360011      -0.26947649       0.00000000
N        6.44480579       6.13136311       9.68459866       0.99358675      -0.26945899       0.00000000
32
Lattice="8.19446076 -0.0 0.0 -0.0 7.79243781 0.0 0.0 0.0 13.08970784" Properties=species:S:1:pos:R:3:forces:R:3 energy=-310558.238411256 free_energy=-310558.187820251 pbc="T T T"
S        1.98693270       5.16170699       1.76813889       0.25121172      -0.18023057      -0.85986300
S        2.11029768       1.26548808       4.77671503      -0.25121295      -0.18022706       0.85986032
S        6.20752806       2.63073082       8.31299281      -0.25121196       0.18023196      -0.85986375
S        6.08416308       6.52694973      11.32156895       0.25121297       0.18022718       0.85986052
S        6.20752806       2.63073082      11.32156895      -0.25121196       0.18023195       0.85986375
S        6.08416308       6.52694973       8.31299281       0.25121297       0.18022718      -0.85986052
S        1.98693270       5.16170699       4.77671503       0.25121172      -0.18023057       0.85986299
S        2.11029768       1.26548808       1.76813889      -0.25121295      -0.18022705      -0.85986032
S        0.09643889       5.78158225       1.21103883      -0.10372248       0.63836796      -0.35140497
S        4.00079149       1.88536334       5.33381509       0.10372308       0.63836879       0.35140497
S        8.09802187       2.01085556       7.75589275       0.10372244      -0.63836837      -0.35140492
S        4.19366927       5.90707447      11.87866901      -0.10372318      -0.63836898       0.35140491
S        8.09802187       2.01085556      11.87866901       0.10372245      -0.63836837       0.35140492
S        4.19366927       5.90707447       7.75589275      -0.10372318      -0.63836898      -0.35140491
S        0.09643889       5.78158225       5.33381509      -0.10372248       0.63836796       0.35140497
S        4.00079149       1.88536334       1.21103883       0.10372308       0.63836879      -0.35140497
S        6.94283514       4.26981339       1.62158220      -0.11384004      -0.70817369      -0.43992172
S        5.34885600       0.37359448       4.92327172       0.11384102      -0.70817296       0.43992128
S        1.25162562       3.52262442       8.16643612       0.11384014       0.70817359      -0.43992166
S        2.84560476       7.41884333      11.46812564      -0.11384102       0.70817300       0.43992122
S        1.25162562       3.52262442      11.46812564       0.11384013       0.70817359       0.43992167
S        2.84560476       7.41884333       8.16643612      -0.11384102       0.70817300      -0.43992122
S        6.94283514       4.26981339       4.92327172      -0.11384004      -0.70817369       0.43992172
S        5.34885600       0.37359448       1.62158220       0.11384102      -0.70817296      -0.43992128
S        5.90293823       4.86530922       3.27242696      -0.70037373       0.43187395      -0.00000001
S        6.38875291       0.96909032       3.27242696       0.70037470       0.43187443      -0.00000001
S        2.29152253       2.92712859       9.81728088       0.70037372      -0.43187427       0.00000000
S        1.80570785       6.82334749       9.81728088      -0.70037473      -0.43187454      -0.00000000
N        2.43587139       5.47329190       3.27242696       0.65755293       0.05857274       0.00000000
N        1.66135899       1.57707299       3.27242696      -0.65755399       0.05857094       0.00000000
N        5.75858937       2.31914591       9.81728088      -0.65755224      -0.05857393       0.00000000
N        6.53310177       6.21536482       9.81728088       0.65755385      -0.05857102       0.00000000
32
Lattice="8.302294978229439 -0.0 0.0 -0.0 7.894981645885409 0.0 0.0 0.0 13.261960591354704" Properties=species:S:1:pos:R:3:forces:R:3 energy=-310558.727994035 free_energy=-310558.677292546 pbc="T T T"
S        2.01307955       5.22963198       1.79140654       0.01476590       0.01948279      -0.25322491
S        2.13806794       1.28214115       4.83957375      -0.01476629       0.01948159       0.25322686
S        6.28921543       2.66534967       8.42238684      -0.01476686      -0.01948128      -0.25323036
S        6.16422704       6.61284050      11.47055405       0.01476902      -0.01947901       0.25322900
S        6.28921543       2.66534967      11.47055405      -0.01476688      -0.01948132       0.25323018
S        6.16422704       6.61284050       8.42238684       0.01476898      -0.01947897      -0.25322919
S        2.01307955       5.22963198       4.83957375       0.01476587       0.01948276       0.25322510
S        2.13806794       1.28214115       1.79140654      -0.01476632       0.01948163      -0.25322667
S        0.09770797       5.85766443       1.22697538      -0.04523311       0.20498487      -0.14805805
S        4.05343952       1.91017360       5.40400492       0.04523386       0.20498563       0.14805871
S        8.20458701       2.03731722       7.85795567       0.04523609      -0.20498543      -0.14806113
S        4.24885546       5.98480805      12.03498521      -0.04523746      -0.20498615       0.14806175
S        8.20458701       2.03731722      12.03498521       0.04523609      -0.20498544       0.14806113
S        4.24885546       5.98480805       7.85795567      -0.04523747      -0.20498614      -0.14806175
S        0.09770797       5.85766443       5.40400492      -0.04523312       0.20498487       0.14805805
S        4.05343952       1.91017360       1.22697538       0.04523385       0.20498564      -0.14805872
S        7.03419871       4.32600159       1.64292125      -0.04281316      -0.26822445      -0.14194242
S        5.41924376       0.37851076       4.98805904       0.04281322      -0.26822523       0.14194212
S        1.26809627       3.56898006       8.27390155       0.04281350       0.26822540      -0.14194511
S        2.88305122       7.51647089      11.61903934      -0.04281488       0.26822489       0.14194488
S        1.26809627       3.56898006      11.61903934       0.04281353       0.26822537       0.14194503
S        2.88305122       7.51647089       8.27390155      -0.04281484       0.26822491      -0.14194496
S        7.03419871       4.32600159       4.98805904      -0.04281313      -0.26822447       0.14194250
S        5.41924376       0.37851076       1.64292125       0.04281325      -0.26822521      -0.14194205
S        5.98061738       4.92933379       3.31549015      -0.20996487       0.18954807      -0.00000004
S        6.47282509       0.98184297       3.31549015       0.20996390       0.18954782      -0.00000004
S        2.32167760       2.96564786       9.94647044       0.20996453      -0.18954833       0.00000004
S        1.82946989       6.91313868       9.94647044      -0.20996524      -0.18954838       0.00000004
N        2.46792601       5.54531716       3.31549015       0.37460954      -0.12379317      -0.00000016
N        1.68322148       1.59782633       3.31549015      -0.37460928      -0.12379449      -0.00000016
N        5.83436897       2.34966449       9.94647044      -0.37461113       0.12379318       0.00000016
N        6.61907349       6.29715532       9.94647044       0.37461294       0.12378807       0.00000016
32
Lattice="8.407398477351629 -0.0 0.0 -0.0 7.994928732644424 0.0 0.0 0.0 13.429851333255233" Properties=species:S:1:pos:R:3:forces:R:3 energy=-310558.798550292 free_energy=-310558.744201967 pbc="T T T"
S        2.03856427       5.29583688       1.81408498      -0.19658828       0.18627055       0.26392793
S        2.16513496       1.29837251       4.90084068       0.19658637       0.18626874      -0.26393047
S        6.36883420       2.69909185       8.52901065       0.19658636      -0.18627144       0.26393419
S        6.24226351       6.69655623      11.61576635      -0.19659012      -0.18627013      -0.26392801
S        6.36883420       2.69909185      11.61576635       0.19658636      -0.18627144      -0.26393421
S        6.24226351       6.69655623       8.52901065      -0.19659012      -0.18627013       0.26392799
S        2.03856427       5.29583688       4.90084068      -0.19658828       0.18627055      -0.26392791
S        2.16513496       1.29837251       1.81408498       0.19658637       0.18626874       0.26393049
S        0.09894491       5.93181995       1.24250836       0.00722088      -0.17414544       0.02813889
S        4.10475433       1.93435558       5.47241730      -0.00721980      -0.17414793      -0.02813855
S        8.30845357       2.06310878       7.95743403      -0.00722092       0.17414655       0.02813993
S        4.30264415       6.06057316      12.18734297       0.00722320       0.17414443      -0.02813991
S        8.30845357       2.06310878      12.18734297      -0.00722092       0.17414655      -0.02813994
S        4.30264415       6.06057316       7.95743403       0.00722320       0.17414443       0.02813991
S        0.09894491       5.93181995       5.47241730       0.00722088      -0.17414544      -0.02813888
S        4.10475433       1.93435558       1.24250836      -0.00721980      -0.17414793       0.02813856
S        7.12324865       4.38076692       1.66371993       0.02002861       0.11727906       0.11425338
S        5.48784906       0.38330254       5.05120573      -0.02002637       0.11727968      -0.11425344
S        1.28414982       3.61416182       8.37864560      -0.02002707      -0.11728075       0.11425287
S        2.91954942       7.61162619      11.76613140       0.02002798      -0.11727962      -0.11425393
S        1.28414982       3.61416182      11.76613140      -0.02002707      -0.11728075      -0.11425289
S        2.91954942       7.61162619       8.37864560       0.02002798      -0.11727962       0.11425391
S        7.12324865       4.38076692       5.05120573       0.02002861       0.11727907      -0.11425337
S        5.48784906       0.38330254       1.66371993      -0.02002637       0.11727968       0.11425345
S        6.05632943       4.99173704       3.35746283       0.21398688      -0.02375369       0.00000001
S        6.55476828       0.99427268       3.35746283      -0.21398823      -0.02375299       0.00000001
S        2.35106904       3.00319169      10.07238850      -0.21398719       0.02375133       0.00000000
S        1.85263019       7.00065605      10.07238850       0.21398675       0.02375281       0.00000000
N        2.49916889       5.61551850       3.35746283       0.13987980      -0.26709827       0.00000000
N        1.70453035       1.61805413       3.35746283      -0.13987752      -0.26711246       0.00000000
N        5.90822959       2.37941023      10.07238850      -0.13987494       0.26711592       0.00000000
N        6.70286813       6.37687461      10.07238850       0.13987277       0.26710994       0.00000000
32
Lattice="8.509937832830065 -0.0 0.0 -0.0 8.092437473493309 0.0 0.0 0.0 13.593646150830834" Properties=species:S:1:pos:R:3:forces:R:3 energy=-310558.529645411 free_energy=-310558.471654885 pbc="T T T"
S        2.06342727       5.36042662       1.83621015      -0.38331918       0.32974599       0.70460417
S        2.19154165       1.31420788       4.96061292       0.38332071       0.32974396      -0.70460142
S        6.44651057       2.73201085       8.63303323       0.38331982      -0.32974264       0.70459827
S        6.31839618       6.77822960      11.75743600      -0.38332530      -0.32974365      -0.70460184
S        6.44651057       2.73201085      11.75743600       0.38331981      -0.32974267      -0.70459840
S        6.31839618       6.77822960       8.63303323      -0.38332531      -0.32974362       0.70460171
S        2.06342727       5.36042662       4.96061292      -0.38331919       0.32974596      -0.70460403
S        2.19154165       1.31420788       1.83621015       0.38332070       0.32974398       0.70460155
S        0.10015167       6.00416635       1.25766240       0.05265010      -0.50507273       0.18111259
S        4.15481724       1.95794760       5.53916068      -0.05264682      -0.50507243      -0.18111103
S        8.40978616       2.08827113       8.05448547      -0.05264553       0.50507334       0.18111270
S        4.35512059       6.13448987      12.33598375       0.05265056       0.50507083      -0.18111529
S        8.40978616       2.08827113      12.33598375      -0.05264554       0.50507334      -0.18111272
S        4.35512059       6.13448987       8.05448547       0.05265055       0.50507083       0.18111528
S        0.10015167       6.00416635       5.53916068       0.05265009      -0.50507273      -0.18111258
S        4.15481724       1.95794760       1.25766240      -0.05264684      -0.50507243       0.18111104
S        7.21012610       4.43419617       1.68401120       0.07446778       0.45493866       0.33658674
S        5.55478065       0.38797743       5.11281187      -0.07446592       0.45493749      -0.33658689
S        1.29981173       3.65824130       8.48083428      -0.07446508      -0.45494049       0.33658777
S        2.95515719       7.70446005      11.90963495       0.07446702      -0.45493819      -0.33658678
S        1.29981173       3.65824130      11.90963495      -0.07446506      -0.45494051      -0.33658783
S        2.95515719       7.70446005       8.48083428       0.07446704      -0.45493817       0.33658672
S        7.21012610       4.43419617       5.11281187       0.07446779       0.45493864      -0.33658667
S        5.55478065       0.38797743       1.68401120      -0.07446591       0.45493751       0.33658696
S        6.13019439       5.05261789       3.39841154       0.58313301      -0.21200398      -0.00000002
S        6.63471236       1.00639915       3.39841154      -0.58313299      -0.21200573      -0.00000002
S        2.37974344       3.03981959      10.19523461      -0.58313288       0.21200432       0.00000001
S        1.87522547       7.08603832      10.19523461       0.58313537       0.21200279       0.00000002
N        2.52964957       5.68400718       3.39841154      -0.05703316      -0.38520860      -0.00000008
N        1.72531935       1.63778844       3.39841154       0.05703531      -0.38520911      -0.00000008
N        5.98028827       2.40843029      10.19523461       0.05702304       0.38519250       0.00000009
N        6.78461848       6.45464903      10.19523461      -0.05704397       0.38522755       0.00000009
32
Lattice="8.610063934070993 -0.0 0.0 -0.0 8.18765135515423 0.0 0.0 0.0 13.753586072539854" Properties=species:S:1:pos:R:3:forces:R:3 energy=-310557.982742253 free_energy=-310557.921162161 pbc="T T T"
S        2.08770511       5.42349625       1.85781461      -0.54784930       0.45311702       1.08373503
S        2.21732686       1.32967057       5.01897843       0.54784814       0.45311955      -1.08373583
S        6.52235883       2.76415511       8.73460764       0.54785525      -0.45311880       1.08372998
S        6.39273707       6.85798079      11.89577147      -0.54784640      -0.45312015      -1.08373653
S        6.52235883       2.76415511      11.89577147       0.54785525      -0.45311882      -1.08372989
S        6.39273707       6.85798079       8.73460764      -0.54784639      -0.45312014       1.08373662
S        2.08770511       5.42349625       5.01897843      -0.54784930       0.45311703      -1.08373521
S        2.21732686       1.32967057       1.85781461       0.54784814       0.45311954       1.08373564
S        0.10133004       6.07481008       1.27245978       0.09054690      -0.79302458       0.31335480
S        4.20370193       1.98098440       5.60433325      -0.09054639      -0.79302252      -0.31335568
S        8.50873390       2.11284128       8.14925282      -0.09055249       0.79302259       0.31335553
S        4.40636200       6.20666696      12.48112629       0.09055276       0.79302085      -0.31335536
S        8.50873390       2.11284128      12.48112629      -0.09055251       0.79302263      -0.31335544
S        4.40636200       6.20666696       8.14925282       0.09055274       0.79302081       0.31335545
S        0.10133004       6.07481008       5.60433325       0.09054688      -0.79302456      -0.31335487
S        4.20370193       1.98098440       1.27245978      -0.09054640      -0.79302254       0.31335561
S        7.29495890       4.48636797       1.70382492       0.12071956       0.75099251       0.53157830
S        5.62013700       0.39254229       5.17296812      -0.12071689       0.75099671      -0.53157956
S        1.31510504       3.70128339       8.58061795      -0.12072384      -0.75099703       0.53157683
S        2.98992693       7.79510907      12.04976116       0.12071536      -0.75099282      -0.53157884
S        1.31510504       3.70128339      12.04976116      -0.12072384      -0.75099706      -0.53157671
S        2.98992693       7.79510907       8.58061795       0.12071537      -0.75099280       0.53157896
S        7.29495890       4.48636797       5.17296812       0.12071955       0.75099251      -0.53157845
S        5.62013700       0.39254229       1.70382492      -0.12071690       0.75099671       0.53157941
S        6.20232094       5.11206590       3.43839652       0.90672547      -0.37875786      -0.00000011
S        6.71277496       1.01824023       3.43839652      -0.90672220      -0.37875442      -0.00000011
S        2.40774299       3.07558545      10.31518955      -0.90672595       0.37875348       0.00000013
S        1.89728897       7.16941112      10.31518955       0.90671913       0.37875556       0.00000013
N        2.55941288       5.75088399       3.43839652      -0.22308717      -0.48250996      -0.00000018
N        1.74561909       1.65705831       3.43839652       0.22308560      -0.48250795      -0.00000018
N        6.05065106       2.43676737      10.31518955       0.22309226       0.48250876       0.00000026
N        6.86444485       6.53059305      10.31518955      -0.22309242       0.48252573       0.00000026
32
Lattice="8.707913946444652 -0.0 0.0 -0.0 8.28070081361908 0.0 0.0 0.0 13.90989020427281" Properties=species:S:1:pos:R:3:forces:R:3 energy=-310557.208439722 free_energy=-310557.14335613 pbc="T T T"
S        2.11143106       5.48513216       1.87892794      -0.69300574       0.55863765       1.41340131
S        2.24252591       1.34478175       5.07601716       0.69301596       0.55863131      -1.41339534
S        6.59648289       2.79556865       8.83387305       0.69301304      -0.55863625       1.41339446
S        6.46538803       6.93591906      12.03096226      -0.69301694      -0.55863202      -1.41339461
S        6.59648289       2.79556865      12.03096226       0.69301301      -0.55863626      -1.41339463
S        6.46538803       6.93591906       8.83387305      -0.69301697      -0.55863200       1.41339444
S        2.11143106       5.48513216       5.07601716      -0.69300578       0.55863766      -1.41340124
S        2.24252591       1.34478175       1.87892794       0.69301593       0.55863130       1.41339541
S        0.10248161       6.14384792       1.28692079       0.12216935      -1.04385339       0.42773453
S        4.25147536       2.00349751       5.66802431      -0.12217030      -1.04385902      -0.42773411
S        8.60543233       2.13685289       8.24186589      -0.12217370       1.04385294       0.42773571
S        4.45643859       6.27720330      12.62296941       0.12217361       1.04385985      -0.42773598
S        8.60543233       2.13685289      12.62296941      -0.12217372       1.04385291      -0.42773574
S        4.45643859       6.27720330       8.24186589       0.12217360       1.04385987       0.42773594
S        0.10248161       6.14384792       5.66802431       0.12216936      -1.04385342      -0.42773448
S        4.25147536       2.00349751       1.28692079      -0.12217029      -1.04385899       0.42773416
S        7.37786326       4.53735379       1.72318822       0.16048869       1.01045898       0.70215528
S        5.68400766       0.39700338       5.23175688      -0.16049704       1.01045784      -0.70215250
S        1.33005069       3.74334703       8.67813332      -0.16049245      -1.01046084       0.70215609
S        3.02390628       7.88369744      12.18670198       0.16049605      -1.01045925      -0.70215765
S        1.33005069       3.74334703      12.18670198      -0.16049243      -1.01046081      -0.70215617
S        3.02390628       7.88369744       8.67813332       0.16049607      -1.01045928       0.70215757
S        7.37786326       4.53735379       5.23175688       0.16048872       1.01045900      -0.70215519
S        5.68400766       0.39700338       1.72318822      -0.16049702       1.01045782       0.70215259
S        6.27280789       5.17016253       3.47747255       1.19000188      -0.52528236       0.00000008
S        6.78906303       1.02981213       3.47747255      -1.19000787      -0.52528531       0.00000008
S        2.43510605       3.11053828      10.43241765      -1.19000151       0.52528021      -0.00000008
S        1.91885092       7.25088868      10.43241765       1.19001102       0.52528784      -0.00000008
N        2.58849961       5.81624054       3.47747255      -0.36345643      -0.56256879      -0.00000004
N        1.76545737       1.67589013       3.47747255       0.36345882      -0.56255956      -0.00000004
N        6.11941434       2.46446027      10.43241765       0.36345725       0.56255927       0.00000011
N        6.94245658       6.60481069      10.43241765      -0.36346417       0.56257311       0.00000011
48
Lattice="7.057094480675576 0.0 0.0 0.0 8.725233773376445 0.0 0.0 0.0 15.440237902736197" Properties=species:S:1:pos:R:3:forces:R:3 energy=-470692.90240478 free_energy=-470692.90240478 pbc="T T T"
N        6.31346691       2.18130844       0.78678048       2.54619443       0.00000015       1.40355359
N        2.78491967       2.18130844       6.93333847       2.54619511       0.00000015      -1.40355341
N        0.74362757       6.54392533      14.65345742      -2.54624353      -0.00000000      -1.40318531
N        4.27217481       6.54392533       8.50689943      -2.54619534      -0.00000000       1.40355244
N        5.69620297       2.18130844       5.40546362       2.78778873       0.00000016      -1.49859843
N        2.16765573       2.18130844       2.31465533       2.78779035       0.00000016       1.49859465
N        1.36089151       6.54392533      10.03477428      -2.78778940      -0.00000001       1.49859734
N        4.88943875       6.54392533      13.12558257      -2.78778831      -0.00000001      -1.49859587
N        0.28808838       2.18130844      10.74131956       2.96459562       0.00000016      -0.63369309
N        3.81663562       2.18130844      12.41903729       2.96459507       0.00000016       0.63369312
N        6.76900610       6.54392533       4.69891834      -2.96459506      -0.00000001       0.63369245
N        3.24045886       6.54392533       3.02120061      -2.96459400      -0.00000001      -0.63369297
Cl       5.43677013       0.85361780       1.19798227      -1.84005664      -3.65248440       1.42857802
Cl       1.90822289       3.50899909       6.52213668      -1.84005680       3.65248426      -1.42857867
Cl       1.62032435       5.21623469      14.24225563       1.84003094      -3.65244120      -1.42852838
Cl       5.14887159       7.87161597       8.91810122       1.84005707       3.65248453       1.42857821
Cl       1.62032435       7.87161597      14.24225563       1.84003094       3.65244121      -1.42852838
Cl       5.14887159       5.21623469       8.91810122       1.84005707      -3.65248453       1.42857822
Cl       5.43677013       3.50899909       1.19798227      -1.84005653       3.65248424       1.42857795
Cl       1.90822289       0.85361780       6.52213668      -1.84005692      -3.65248442      -1.42857874
Cl       6.48316943       2.18130844      14.59714517       1.05605908       0.00000001      -4.25178147
Cl       2.95462219       2.18130844       8.56321168       1.05605911       0.00000002       4.25178113
Cl       0.57392505       6.54392533       0.84310817      -1.05595933      -0.00000001       4.25130580
Cl       4.10247229       6.54392533       6.87702622      -1.05605915      -0.00000000      -4.25178176
Cl       5.49519625       0.86129889       6.35665763       0.07723187      -3.74952907       2.40323967
Cl       1.96664901       3.50131800       1.36346133       0.07723123       3.74952834      -2.40323690
Cl       1.56189824       5.22391577       9.08358028      -0.07723176      -3.74952894      -2.40324021
Cl       5.09044548       7.86393489      14.07677658      -0.07723134       3.74952841       2.40323950
Cl       1.56189824       7.86393489       9.08358028      -0.07723176       3.74952893      -2.40324022
Cl       5.09044548       5.22391577      14.07677658      -0.07723134      -3.74952841       2.40323950
Cl       5.49519625       3.50131800       6.35665763       0.07723189       3.74952891       2.40323953
Cl       1.96664901       0.86129889       1.36346133       0.07723122      -3.74952850      -2.40323704
Cl       4.48699552       2.18130844       4.28853025      -2.78219652       0.00000002      -3.41767045
Cl       0.95844828       2.18130844       3.43158870      -2.78219679       0.00000002       3.41766957
Cl       2.57009896       6.54392533      11.15170765       2.78219722      -0.00000000       3.41767035
Cl       6.09864620       6.54392533      12.00864920       2.78219757      -0.00000000      -3.41766927
Cl       6.89268507       0.85733153      11.59456363      -0.59877509      -3.70758741       2.23428338
Cl       3.36413783       3.50528536      11.56579322      -0.59877492       3.70758739      -2.23428383
Cl       0.16440941       5.21994841       3.84567427       0.59877347      -3.70758901      -2.23427847
Cl       3.69295665       7.86790225       3.87444468       0.59877494       3.70758725       2.23428350
Cl       0.16440941       7.86790225       3.84567427       0.59877347       3.70758900      -2.23427847
Cl       3.69295665       5.21994841       3.87444468       0.59877493      -3.70758725       2.23428351
Cl       6.89268507       3.50528536      11.59456363      -0.59877504       3.70758725       2.23428325
Cl       3.36413783       0.85733153      11.56579322      -0.59877498      -3.70758755      -2.23428396
Cl       6.48153790       2.18130844       9.33408162      -1.69535411       0.00000001      -3.88385443
Cl       2.95299066       2.18130844      13.82627523      -1.69535384       0.00000001       3.88385382
Cl       0.57555658       6.54392533       6.10615628       1.69535476      -0.00000000       3.88385440
Cl       4.10410382       6.54392533       1.61396267       1.69535240      -0.00000000      -3.88385317
48
Lattice="7.172805119856865 0.0 0.0 0.0 8.868295819617733 0.0 0.0 0.0 15.693401552695683" Properties=species:S:1:pos:R:3:forces:R:3 energy=-470697.501222742 free_energy=-470697.501222742 pbc="T T T"
N        6.41698476       2.21707395       0.79968081       2.06078575       0.00000012       1.12311914
N        2.83058220       2.21707395       7.04701996       2.06078665       0.00000012      -1.12311825
N        0.75582036       6.65122186      14.89372074      -2.06082445       0.00000013      -1.12280401
N        4.34222292       6.65122186       8.64638159      -2.06078682       0.00000013       1.12311769
N        5.78959995       2.21707395       5.49409353       2.22358363       0.00000013      -1.19026590
N        2.20319739       2.21707395       2.35260725       2.22358535       0.00000013       1.19026164
N        1.38320517       6.65122186      10.19930802      -2.22358438       0.00000013       1.19026506
N        4.96960773       6.65122186      13.34079431      -2.22358348       0.00000013      -1.19026342
N        0.29281198       2.21707395      10.91743807       2.38196000       0.00000013      -0.49354981
N        3.87921454       2.21707395      12.62266426       2.38195943       0.00000013       0.49355025
N        6.87999314       6.65122186       4.77596348      -2.38195952       0.00000013       0.49354935
N        3.29359058       6.65122186       3.07073729      -2.38195886       0.00000013      -0.49354998
Cl       5.52591336       0.86761402       1.21762481      -1.46053347      -2.85253218       1.09642073
Cl       1.93951080       3.56653389       6.62907596      -1.46053373       2.85253202      -1.09642113
Cl       1.64689176       5.30176193      14.47577674       1.46050975      -2.85249104      -1.09637638
Cl       5.23329432       8.00068180       9.06432559       1.46053394       2.85253206       1.09642116
Cl       1.64689176       8.00068180      14.47577674       1.46050965       2.85249090      -1.09637633
Cl       5.23329432       5.30176193       9.06432559       1.46053403      -2.85253221       1.09642122
Cl       5.52591336       3.56653389       1.21762481      -1.46053337       2.85253203       1.09642068
Cl       1.93951080       0.86761402       6.62907596      -1.46053383      -2.85253216      -1.09642118
Cl       6.58946979       2.21707395      14.83648518       0.79516166       0.00000001      -3.32354627
Cl       3.00306723       2.21707395       8.70361715       0.79516164       0.00000001       3.32354585
Cl       0.58333533       6.65122186       0.85693207      -0.79507686       0.00000001       3.32312834
Cl       4.16973789       6.65122186       6.98978440      -0.79516158       0.00000002      -3.32354578
Cl       5.58529744       0.87542105       6.46088365       0.03825983      -2.90560487       1.87566041
Cl       1.99889488       3.55872686       1.38581712       0.03825917       2.90560409      -1.87565702
Cl       1.58750768       5.30956896       9.23251790      -0.03825964      -2.90560478      -1.87566043
Cl       5.17391024       7.99287477      14.30758443      -0.03825927       2.90560403       1.87566019
Cl       1.58750768       7.99287477       9.23251790      -0.03825965       2.90560464      -1.87566031
Cl       5.17391024       5.30956896      14.30758443      -0.03825926      -2.90560417       1.87566031
Cl       5.58529744       3.55872686       6.46088365       0.03825984       2.90560472       1.87566029
Cl       1.99889488       0.87542105       1.38581712       0.03825916      -2.90560424      -1.87565714
Cl       4.56056590       2.21707395       4.35884652      -2.18482038       0.00000002      -2.64517813
Cl       0.97416334       2.21707395       3.48785425      -2.18482082       0.00000002       2.64517758
Cl       2.61223922       6.65122186      11.33455503       2.18482123       0.00000002       2.64517849
Cl       6.19864178       6.65122186      12.20554730       2.18482145       0.00000003      -2.64517712
Cl       7.00569999       0.87138864      11.78467223      -0.49550757      -2.88307999       1.74079959
Cl       3.41929743       3.56275927      11.75543010      -0.49550732       2.88307997      -1.74079949
Cl       0.16710513       5.30553655       3.90872932       0.49550615      -2.88308125      -1.74079528
Cl       3.75350769       7.99690718       3.93797146       0.49550742       2.88307982       1.74079943
Cl       0.16710513       7.99690718       3.90872932       0.49550610       2.88308111      -1.74079517
Cl       3.75350769       5.30553655       3.93797146       0.49550746      -2.88307996       1.74079955
Cl       7.00569999       3.56275927      11.78467223      -0.49550753       2.88307985       1.74079948
Cl       3.41929743       0.87138864      11.75543010      -0.49550736      -2.88308011      -1.74079961
Cl       6.58781151       2.21707395       9.48712655      -1.34371885       0.00000001      -3.02374507
Cl       3.00140895       2.21707395      14.05297578      -1.34371867       0.00000002       3.02374508
Cl       0.58499361       6.65122186       6.20627500       1.34371964       0.00000002       3.02374577
Cl       4.17139617       6.65122186       1.64042578       1.34371775       0.00000002      -3.02374406
48
Lattice="7.284898305298275 0.0 0.0 0.0 9.006885326964829 0.0 0.0 0.0 15.938650564910297" Properties=species:S:1:pos:R:3:forces:R:3 energy=-470700.951690563 free_energy=-470700.951690563 pbc="T T T"
N        6.51726635       2.25172133       0.81217784       1.64881448      -0.00000000       0.88447541
N        2.87481720       2.25172133       7.15714744       1.64881552      -0.00000000      -0.88447393
N        0.76763196       6.75516400      15.12647272      -1.64884349      -0.00000011      -0.88420450
N        4.41008111       6.75516400       8.78150313      -1.64881586      -0.00000011       0.88447343
N        5.88007706       2.25172133       5.57995261       1.74905056       0.00000001      -0.93053877
N        2.23762791       2.25172133       2.38937267       1.74905227       0.00000001       0.93053513
N        1.40482125       6.75516400      10.35869795      -1.74905166      -0.00000012       0.93053831
N        5.04727040       6.75516400      13.54927789      -1.74905075      -0.00000012      -0.93053643
N        0.29738791       2.25172133      11.08805060       1.88898000       0.00000012      -0.37773829
N        3.93983706       2.25172133      12.81992525       1.88897947       0.00000012       0.37773871
N        6.98751040       6.75516400       4.85059997      -1.88897973      -0.00000011       0.37773754
N        3.34506125       6.75516400       3.11872531      -1.88897951      -0.00000011      -0.37773855
Cl       5.61226970       0.88117268       1.23665328      -1.14112026      -2.17605753       0.81616880
Cl       1.96982055       3.62226998       6.73267201      -1.14112077       2.17605758      -0.81616899
Cl       1.67262860       5.38461534      14.70199729       1.14109782      -2.17601807      -0.81612926
Cl       5.31507776       8.12571265       9.20597856       1.14112090       2.17605753       0.81616947
Cl       1.67262860       8.12571265      14.70199729       1.14109791       2.17601819      -0.81612931
Cl       5.31507776       5.38461534       9.20597856       1.14112083      -2.17605740       0.81616942
Cl       5.61226970       3.62226998       1.23665328      -1.14112026       2.17605752       0.81616880
Cl       1.96982055       0.88117268       6.73267201      -1.14112078      -2.17605758      -0.81616899
Cl       6.69244689       2.25172133      15.06834271       0.57564371       0.00000000      -2.52637166
Cl       3.04999773       2.25172133       8.83963314       0.57564377      -0.00000000       2.52637161
Cl       0.59245142       6.75516400       0.87032379      -0.57556966      -0.00000000       2.52600189
Cl       4.23490057       6.75516400       7.09901742      -0.57564366      -0.00000001      -2.52637052
Cl       5.67258181       0.88910171       6.56185127       0.00760885      -2.18136060       1.42256872
Cl       2.03013266       3.61434095       1.40747402       0.00760810       2.18136025      -1.42256510
Cl       1.61231649       5.39254438       9.37679930      -0.00760873      -2.18136060      -1.42256833
Cl       5.25476564       8.11778361      14.53117655      -0.00760831       2.18135985       1.42256850
Cl       1.61231649       8.11778361       9.37679930      -0.00760873       2.18136073      -1.42256842
Cl       5.25476564       5.39254438      14.53117655      -0.00760833      -2.18135972       1.42256841
Cl       5.67258181       3.61434095       6.56185127       0.00760885       2.18136060       1.42256872
Cl       2.03013266       0.88910171       1.40747402       0.00760810      -2.18136024      -1.42256510
Cl       4.63183625       2.25172133       4.42696450      -1.66930687      -0.00000001      -1.98094357
Cl       0.98938710       2.25172133       3.54236078      -1.66930732      -0.00000001       1.98094355
Cl       2.65306205       6.75516400      11.51168606       1.66930789       0.00000002       1.98094456
Cl       6.29551121       6.75516400      12.39628978       1.66930786       0.00000001      -1.98094288
Cl       7.11518174       0.88500629      11.96883748      -0.40663143      -2.18851105       1.32786287
Cl       3.47273259       3.61843638      11.93913836      -0.40663112       2.18851096      -1.32786246
Cl       0.16971657       5.38844895       3.96981308       0.40662997      -2.18851166      -1.32785885
Cl       3.81216572       8.12187904       3.99951220       0.40663132       2.18851109       1.32786298
Cl       0.16971657       8.12187904       3.96981308       0.40663002       2.18851178      -1.32785894
Cl       3.81216572       5.38844895       3.99951220       0.40663128      -2.18851097       1.32786289
Cl       7.11518174       3.61843638      11.96883748      -0.40663139       2.18851092       1.32786279
Cl       3.47273259       0.88500629      11.93913836      -0.40663117      -2.18851109      -1.32786255
Cl       6.69076269       2.25172133       9.63538685      -1.04820330      -0.00000001      -2.29186478
Cl       3.04831354       2.25172133      14.27258900      -1.04820330      -0.00000001       2.29186525
Cl       0.59413561       6.75516400       6.30326371       1.04820423       0.00000000       2.29186627
Cl       4.23658476       6.75516400       1.66606157       1.04820265      -0.00000000      -2.29186384
48
Lattice="7.393644163149092 0.0 0.0 0.0 9.141336273346932 0.0 0.0 0.0 16.17657594918162" Properties=species:S:1:pos:R:3:forces:R:3 energy=-470703.478224065 free_energy=-470703.478224065 pbc="T T T"
N        6.61455332       2.28533407       0.82430169       1.29184779       0.00000000       0.67963217
N        2.91773124       2.28533407       7.26398628       1.29184902       0.00000000      -0.67963040
N        0.77909084       6.85600221      15.35227426      -1.29186720      -0.00000008      -0.67939910
N        4.47591292       6.85600221       8.91258966      -1.29184952      -0.00000009       0.67963006
N        5.96785234       2.28533407       5.66324777       1.34554454       0.00000001      -0.70811736
N        2.27103026       2.28533407       2.42504021       1.34554628       0.00000001       0.70811336
N        1.42579182       6.85600221      10.51332818      -1.34554558      -0.00000009       0.70811645
N        5.12261390       6.85600221      13.75153574      -1.34554491      -0.00000009      -0.70811476
N        0.30182719       2.28533407      11.25356829       1.46539369      -0.00000009      -0.27934932
N        3.99864927       2.28533407      13.01129563       1.46539323      -0.00000009       0.27934979
N        7.09181698       6.85600221       4.92300766      -1.46539353      -0.00000009       0.27934856
N        3.39499490       6.85600221       3.16528032      -1.46539367      -0.00000009      -0.27935028
Cl       5.69604727       0.89432645       1.25511351      -0.86309710      -1.59126263       0.57778834
Cl       1.99922519       3.67634169       6.83317447      -0.86309768       1.59126266      -0.57778850
Cl       1.69759689       5.46499459      14.92146244       0.86307532      -1.59122453      -0.57775336
Cl       5.39441897       8.24700982       9.34340148       0.86309782       1.59126282       0.57778913
Cl       1.69759689       8.24700982      14.92146244       0.86307539       1.59122463      -0.57775340
Cl       5.39441897       5.46499459       9.34340148       0.86309774      -1.59126272       0.57778909
Cl       5.69604727       3.67634169       1.25511351      -0.86309710       1.59126263       0.57778834
Cl       1.99922519       0.89432645       6.83317447      -0.86309768      -1.59126267      -0.57778851
Cl       6.79234888       2.28533407      15.29327651       0.38988805      -0.00000001      -1.84323495
Cl       3.09552680       2.28533407       8.97158742       0.38988807      -0.00000001       1.84323457
Cl       0.60129528       6.85600221       0.88331562      -0.38982350      -0.00000001       1.84291358
Cl       4.29811736       6.85600221       7.20498853      -0.38988808      -0.00000001      -1.84323369
Cl       5.75725970       0.90237385       6.65980379      -0.01674209      -1.57318630       1.03993288
Cl       2.06043762       3.66829429       1.42848419      -0.01674285       1.57318598      -1.03992912
Cl       1.63638446       5.47304198       9.51677216       0.01674211      -1.57318585      -1.03993212
Cl       5.33320655       8.23896243      14.74809176       0.01674246       1.57318513       1.03993248
Cl       1.63638446       8.23896243       9.51677216       0.01674212       1.57318595      -1.03993220
Cl       5.33320655       5.47304198      14.74809176       0.01674245      -1.57318503       1.03993240
Cl       5.75725970       3.66829429       6.65980379      -0.01674209       1.57318629       1.03993288
Cl       2.06043762       0.90237385       1.42848419      -0.01674285      -1.57318598      -1.03992911
Cl       4.70097833       2.28533407       4.49304834      -1.23668894      -0.00000001      -1.42540131
Cl       1.00415625       2.28533407       3.59523963      -1.23668954      -0.00000001       1.42540137
Cl       2.69266583       6.85600221      11.68352761       1.23668988      -0.00000000       1.42540226
Cl       6.38948791       6.85600221      12.58133632       1.23668991       0.00000000      -1.42540097
Cl       7.22139414       0.89821728      12.14750319      -0.32491599      -1.59132072       0.97486049
Cl       3.52457206       3.67245085      12.11736074      -0.32491575       1.59132099      -0.97486041
Cl       0.17225002       5.46888542       4.02907276       0.32491466      -1.59132108      -0.97485730
Cl       3.86907210       8.24311899       4.05921521       0.32491594       1.59132106       0.97486086
Cl       0.17225002       8.24311899       4.02907276       0.32491469       1.59132120      -0.97485738
Cl       3.86907210       5.46888542       4.05921521       0.32491591      -1.59132094       0.97486078
Cl       7.22139414       3.67245085      12.14750319      -0.32491602       1.59132082       0.97486057
Cl       3.52457206       0.89821728      12.11736074      -0.32491571      -1.59132089      -0.97486033
Cl       6.79063955       2.28533407       9.77921980      -0.79696805      -0.00000003      -1.66912522
Cl       3.09381747       2.28533407      14.48564412      -0.79696812      -0.00000003       1.66912603
Cl       0.60300462       6.85600221       6.39735615       0.79696890      -0.00000001       1.66912682
Cl       4.29982670       6.85600221       1.69093183       0.79696758      -0.00000000      -1.66912419
48
Lattice="7.499281923421209 0.0 0.0 0.0 9.271944437400007 0.0 0.0 0.0 16.407701117560766" Properties=species:S:1:pos:R:3:forces:R:3 energy=-470705.260330113 free_energy=-470705.260330113 pbc="T T T"
N        6.70905971       2.31798611       0.83607902       0.97462192       0.00000001       0.49999092
N        2.95941875       2.31798611       7.36777154       0.97462322       0.00000001      -0.49998954
N        0.79022221       6.95395833      15.57162210      -0.97463199       0.00000000      -0.49979019
N        4.53986317       6.95395833       9.03992958      -0.97462383       0.00000000       0.49998826
N        6.05311890       2.31798611       5.74416224       0.99524679       0.00000001      -0.51409429
N        2.30347794       2.31798611       2.45968832       0.99524847       0.00000001       0.51408994
N        1.44616303       6.95395833      10.66353888      -0.99524805      -0.00000008       0.51409286
N        5.19580399       6.95395833      13.94801280      -0.99524745      -0.00000008      -0.51409180
N        0.30613959       2.31798611      11.41435528       1.09144432       0.00000001      -0.19456867
N        4.05578055       2.31798611      13.19719640       1.09144386       0.00000001       0.19456853
N        7.19314234       6.95395833       4.99334584      -1.09144427      -0.00000008       0.19456712
N        3.44350138       6.95395833       3.21050472      -1.09144464      -0.00000008      -0.19456960
Cl       5.77743037       0.90710427       1.27304612      -0.61873551      -1.08709118       0.37549604
Cl       2.02778941       3.72886795       6.93080443      -0.61873614       1.08709121      -0.37549649
Cl       1.72185155       5.54307649      15.13465499       0.61871405      -1.08705397      -0.37546534
Cl       5.47149251       8.36484017       9.47689668       0.61873635       1.08709137       0.37549674
Cl       1.72185155       8.36484017      15.13465499       0.61871405       1.08705395      -0.37546534
Cl       5.47149251       5.54307649       9.47689668       0.61873635      -1.08709139       0.37549675
Cl       5.77743037       3.72886795       1.27304612      -0.61873551       1.08709119       0.37549603
Cl       2.02778941       0.90710427       6.93080443      -0.61873614      -1.08709120      -0.37549649
Cl       6.88939555       2.31798611      15.51178141       0.23465673       0.00000001      -1.26612874
Cl       3.13975459       2.31798611       9.09977027       0.23465670       0.00000001       1.26612793
Cl       0.60988637       6.95395833       0.89593612      -0.23460248      -0.00000001       1.26585668
Cl       4.35952734       6.95395833       7.30793085      -0.23465672      -0.00000001      -1.26612725
Cl       5.83951738       0.91526664       6.75495670      -0.03594235      -1.06693923       0.71996540
Cl       2.08987642       3.72070558       1.44889386      -0.03594316       1.06693900      -0.71996188
Cl       1.65976454       5.55123886       9.65274442       0.03594241      -1.06693898      -0.71996508
Cl       5.40940551       8.35667779      14.95880726       0.03594279       1.06693821       0.71996511
Cl       1.65976454       8.35667779       9.65274442       0.03594242       1.06693906      -0.71996514
Cl       5.40940551       5.55123886      14.95880726       0.03594278      -1.06693813       0.71996505
Cl       5.83951738       3.72070558       6.75495670      -0.03594235       1.06693923       0.71996540
Cl       2.08987642       0.91526664       1.44889386      -0.03594316      -1.06693900      -0.71996189
Cl       4.76814424       2.31798611       4.55724342      -0.87432139      -0.00000000      -0.96409900
Cl       1.01850328       2.31798611       3.64660714      -0.87432197      -0.00000001       0.96409869
Cl       2.73113769       6.95395833      11.85045770       0.87432253      -0.00000001       0.96409978
Cl       6.48077865       6.95395833      12.76109398       0.87432239      -0.00000001      -0.96409880
Cl       7.32457085       0.91105069      12.32106240      -0.24899951      -1.07572715       0.66902789
Cl       3.57492989       3.72492153      12.29048928      -0.24899919       1.07572719      -0.66902792
Cl       0.17471107       5.54702291       4.08663872       0.24899830      -1.07572723      -0.66902552
Cl       3.92435203       8.36089374       4.11721184       0.24899953       1.07572746       0.66902816
Cl       0.17471107       8.36089374       4.08663872       0.24899832       1.07572730      -0.66902558
Cl       3.92435203       5.54702291       4.11721184       0.24899951      -1.07572739       0.66902809
Cl       7.32457085       3.72492153      12.32106240      -0.24899952       1.07572714       0.66902788
Cl       3.57492989       0.91105069      12.29048928      -0.24899919      -1.07572719      -0.66902791
Cl       6.88766179       2.31798611       9.91894182      -0.57980594       0.00000001      -1.14246180
Cl       3.13802083       2.31798611      14.69260986      -0.57980614       0.00000001       1.14246237
Cl       0.61162013       6.95395833       6.48875930       0.57980696      -0.00000001       1.14246328
Cl       4.36126109       6.95395833       1.71509126       0.57980588      -0.00000001      -1.14246065
48
Lattice="7.60202458 0.0 0.0 0.0 9.39897316 0.0 0.0 0.0 16.63249208" Properties=species:S:1:pos:R:3:forces:R:3 energy=-470706.441236282 free_energy=-470706.441236282 pbc="T T T"
N        6.80097606       2.34974329       0.84753358       0.68618146       0.00000000       0.33939386
N        2.99996377       2.34974329       7.46871246       0.68618286       0.00000000      -0.33939240
N        0.80104852       7.04922987      15.78495850      -0.68618230       0.00000000      -0.33922130
N        4.60206081       7.04922987       9.16377962      -0.68618322       0.00000000       0.33939151
N        6.13604864       2.34974329       5.82285917       0.68391834       0.00000000      -0.34148259
N        2.33503635       2.34974329       2.49338687       0.68391999       0.00000000       0.34147820
N        1.46597594       7.04922987      10.80963291      -0.68391929       0.00000000       0.34148106
N        5.26698823       7.04922987      14.13910521      -0.68391877      -0.00000000      -0.34148065
N        0.31033380       2.34974329      11.57073574       0.75374971       0.00000000      -0.11979285
N        4.11134609       2.34974329      13.37800238       0.75374929       0.00000000       0.11979204
N        7.29169078       7.04922987       5.06175634      -0.75374960       0.00000000       0.11979112
N        3.49067849       7.04922987       3.25448970      -0.75375021       0.00000000      -0.11979401
Cl       5.85658309       0.91953190       1.29048728      -0.40711253      -0.66014674       0.20537473
Cl       2.05557080       3.77995468       7.02575876      -0.40711323       0.66014680      -0.20537539
Cl       1.74544149       5.61901848      15.34200480       0.40709083      -0.66010974      -0.20534822
Cl       5.54645378       8.47944126       9.60673332       0.40711335       0.66014677       0.20537580
Cl       1.74544149       8.47944126      15.34200480       0.40709082       0.66010974      -0.20534822
Cl       5.54645378       5.61901848       9.60673332       0.40711335      -0.66014677       0.20537581
Cl       5.85658309       3.77995468       1.29048728      -0.40711252       0.66014675       0.20537472
Cl       2.05557080       0.91953190       7.02575876      -0.40711323      -0.66014680      -0.20537540
Cl       6.98378256       2.34974329      15.72429797       0.10699859       0.00000000      -0.77869139
Cl       3.18277027       2.34974329       9.22444015       0.10699859      -0.00000000       0.77869028
Cl       0.61824202       7.04922987       0.90821074      -0.10695409      -0.00000000       0.77845848
Cl       4.41925431       7.04922987       7.40805193      -0.10699847       0.00000000      -0.77868880
Cl       5.91952071       0.92780610       6.84750185      -0.04915846      -0.63753285       0.44725666
Cl       2.11850842       3.77168048       1.46874419      -0.04915925       0.63753268      -0.44725330
Cl       1.68250387       5.62729268       9.78499023       0.04915847      -0.63753221      -0.44725593
Cl       5.48351616       8.47116706      15.16374789       0.04915891       0.63753133       0.44725569
Cl       1.68250387       8.47116706       9.78499023       0.04915847       0.63753220      -0.44725593
Cl       5.48351616       5.62729268      15.16374789       0.04915891      -0.63753134       0.44725569
Cl       5.91952071       3.77168048       6.84750185      -0.04915846       0.63753286       0.44725666
Cl       2.11850842       0.92780610       1.46874419      -0.04915925      -0.63753268      -0.44725330
Cl       4.83346940       2.34974329       4.61967917      -0.56244576       0.00000000      -0.57391380
Cl       1.03245711       2.34974329       3.69656687      -0.56244638      -0.00000000       0.57391351
Cl       2.76855518       7.04922987      12.01281291       0.56244693      -0.00000000       0.57391453
Cl       6.56956747       7.04922987      12.93592521       0.56244672      -0.00000000      -0.57391384
Cl       7.42491991       0.92353239      12.48986505      -0.18052576      -0.63676036       0.40602660
Cl       3.62390762       3.77595419      12.45887307      -0.18052539       0.63676038      -0.40602697
Cl       0.17710467       5.62301897       4.14262703       0.18052455      -0.63676006      -0.40602465
Cl       3.97811696       8.47544077       4.17361901       0.18052580       0.63676062       0.40602699
Cl       0.17710467       8.47544077       4.14262703       0.18052455       0.63676006      -0.40602465
Cl       3.97811696       5.62301897       4.17361901       0.18052580      -0.63676062       0.40602699
Cl       7.42491991       3.77595419      12.48986505      -0.18052576       0.63676035       0.40602660
Cl       3.62390762       0.92353239      12.45887307      -0.18052539      -0.63676038      -0.40602696
Cl       6.98202505       2.34974329      10.05483462      -0.38837803      -0.00000000      -0.69599207
Cl       3.18101276       2.34974329      14.89390350      -0.38837829       0.00000000       0.69599249
Cl       0.61999953       7.04922987       6.57765746       0.38837909       0.00000000       0.69599389
Cl       4.42101182       7.04922987       1.73858858       0.38837822      -0.00000000      -0.69599128
48
Lattice="7.702062691299135 0.0 0.0 0.0 9.52265804330745 0.0 0.0 0.0 16.851365759816623" Properties=species:S:1:pos:R:3:forces:R:3 energy=-470707.133247292 free_energy=-470707.133247292 pbc="T T T"
N        6.89047285       2.38066451       0.85868662       0.42274286      -0.00000000       0.19497569
N        3.03944150       2.38066451       7.56699626       0.42274446      -0.00000000      -0.19497419
N        0.81158984       7.14199353      15.99267914      -0.42273556      -0.00000000      -0.19482580
N        4.66262119       7.14199353       9.28436950      -0.42274485      -0.00000000       0.19497271
N        6.21679538       2.38066451       5.89948453       0.40442092       0.00000005      -0.18686512
N        2.36576404       2.38066451       2.52619835       0.40442249       0.00000005       0.18686054
N        1.48526731       7.14199353      10.95188123      -0.40442192       0.00000005       0.18686316
N        5.33629866       7.14199353      14.32516741      -0.40442169       0.00000005      -0.18686286
N        0.31441761       2.38066451      11.72299972       0.44674989       0.00000006      -0.05384599
N        4.16544895       2.38066451      13.55404892       0.44674952       0.00000006       0.05384523
N        7.38764508       7.14199353       5.12836604      -0.44674977       0.00000006       0.05384378
N        3.53661374       7.14199353       3.29731684      -0.44675046       0.00000006      -0.05384727
Cl       5.93365223       0.93163239       1.30746932      -0.22328846      -0.29837246       0.06300984
Cl       2.08262089       3.82969663       7.11821356      -0.22328925       0.29837258      -0.06301058
Cl       1.76841046       5.69296141      15.54389644       0.22326654      -0.29833583      -0.06298625
Cl       5.61944181       8.59102565       9.73315220       0.22328938       0.29837251       0.06301078
Cl       1.76841046       8.59102565      15.54389644       0.22326654       0.29833583      -0.06298625
Cl       5.61944181       5.69296141       9.73315220       0.22328938      -0.29837251       0.06301079
Cl       5.93365223       3.82969663       1.30746932      -0.22328846       0.29837246       0.06300984
Cl       2.08262089       0.93163239       7.11821356      -0.22328925      -0.29837258      -0.06301057
Cl       7.07568497       2.38066451      15.93122036       0.00351253       0.00000000      -0.35846393
Cl       3.22465363       2.38066451       9.34582828       0.00351251       0.00000000       0.35846270
Cl       0.62637772       7.14199353       0.92016225      -0.00347652      -0.00000000       0.35826141
Cl       4.47740906       7.14199353       7.50553748      -0.00351232       0.00000000      -0.35846123
Cl       5.99741807       0.94001548       6.93761089      -0.05533393      -0.26589179       0.20958826
Cl       2.14638673       3.82131355       1.48807199      -0.05533467       0.26589161      -0.20958498
Cl       1.70464462       5.70134450       9.91375487       0.05533401      -0.26589103      -0.20958762
Cl       5.55567596       8.58264257      15.36329377       0.05533446       0.26589020       0.20958752
Cl       1.70464462       8.58264257       9.91375487       0.05533401       0.26589098      -0.20958757
Cl       5.55567596       5.70134450      15.36329377       0.05533447      -0.26589025       0.20958756
Cl       5.99741807       3.82131355       6.93761089      -0.05533392       0.26589173       0.20958822
Cl       2.14638673       0.94001548       1.48807199      -0.05533468      -0.26589168      -0.20958502
Cl       4.89707498       2.38066451       4.68047139      -0.28781127      -0.00000000      -0.23927673
Cl       1.04604363       2.38066451       3.74521149      -0.28781183      -0.00000000       0.23927629
Cl       2.80498772       7.14199353      12.17089437       0.28781253       0.00000000       0.23927743
Cl       6.65601906       7.14199353      13.10615427       0.28781226       0.00000000      -0.23927666
Cl       7.52262743       0.93568553      12.65422423      -0.11783624      -0.26495858       0.18087471
Cl       3.67159608       3.82564350      12.62282441      -0.11783583       0.26495852      -0.18087485
Cl       0.17943526       5.69701455       4.19714153       0.11783514      -0.26495806      -0.18087299
Cl       4.03046661       8.58697252       4.22854135       0.11783632       0.26495875       0.18087490
Cl       0.17943526       8.58697252       4.19714153       0.11783512       0.26495801      -0.18087295
Cl       4.03046661       5.69701455       4.22854135       0.11783634      -0.26495881       0.18087495
Cl       7.52262743       3.82564350      12.65422423      -0.11783622       0.26495853       0.18087467
Cl       3.67159608       0.93568553      12.62282441      -0.11783585      -0.26495857      -0.18087490
Cl       7.07390434       2.38066451      10.18715025      -0.21526712      -0.00000000      -0.31019533
Cl       3.22287299       2.38066451      15.08989839      -0.21526750       0.00000000       0.31019603
Cl       0.62815835       7.14199353       6.66421551       0.21526833       0.00000000       0.31019716
Cl       4.47918970       7.14199353       1.76146737       0.21526756       0.00000001      -0.31019450
48
Lattice="7.799567506707013 0.0 0.0 0.0 9.643210816235921 0.0 0.0 0.0 17.064696834054402" Properties=species:S:1:pos:R:3:forces:R:3 energy=-470707.423123062 free_energy=-470707.423123062 pbc="T T T"
N        6.97770329       2.41080270       0.86955722       0.17785780       0.00000005       0.06150811
N        3.07791953       2.41080270       7.66279120       0.17785938       0.00000005      -0.06150649
N        0.82186422       7.23240811      16.19513961      -0.17784340       0.00000005      -0.06137771
N        4.72164797       7.23240811       9.40190564      -0.17786013       0.00000005       0.06150457
N        6.29549735       2.41080270       5.97416947       0.14733493       0.00000005      -0.04499081
N        2.39571360       2.41080270       2.55817894       0.14733642       0.00000005       0.04498644
N        1.50407016       7.23240811      11.09052736      -0.14733633       0.00000005       0.04498862
N        5.40385391       7.23240811      14.50651789      -0.14733603       0.00000005      -0.04498859
N        0.31839800       2.41080270      11.87140788       0.16214890      -0.00000000       0.00563142
N        4.21818175       2.41080270      13.72563737       0.16214859      -0.00000001      -0.00563232
N        7.48116951       7.23240811       5.19328895      -0.16214882      -0.00000001      -0.00563382
N        3.58138575       7.23240811       3.33905946      -0.16214947      -0.00000001       0.00563042
Cl       6.00876973       0.94342646       1.32402132      -0.06035709       0.01501631      -0.05806567
Cl       2.10898597       3.87817895       7.20832709      -0.06035783      -0.01501619       0.05806509
Cl       1.79079778       5.76503187      15.74067551       0.06033490       0.01505238       0.05808684
Cl       5.69058153       8.69978436       9.85636974       0.06035821      -0.01501585      -0.05806490
Cl       1.79079778       8.69978436      15.74067551       0.06033487      -0.01505243       0.05808685
Cl       5.69058153       5.76503187       9.85636974       0.06035824       0.01501580      -0.05806488
Cl       6.00876973       3.87817895       1.32402132      -0.06035706      -0.01501636      -0.05806568
Cl       2.10898597       0.94342646       7.20832709      -0.06035786       0.01501614       0.05806507
Cl       7.16526012       2.41080270      16.13290278      -0.08111205       0.00000000       0.01255682
Cl       3.26547636       2.41080270       9.46414247      -0.08111208       0.00000000      -0.01255807
Cl       0.63430739       7.23240811       0.93181111       0.08114141       0.00000000      -0.01273484
Cl       4.53409114       7.23240811       7.60055437       0.08111218      -0.00000000       0.01255913
Cl       6.07334282       0.95191567       7.02543807      -0.05513894       0.06098806      -0.00042808
Cl       2.17355906       3.86968974       1.50691034      -0.05513963      -0.06098821       0.00043142
Cl       1.72622469       5.77352108      10.03925876       0.05513902       0.06098850       0.00042840
Cl       5.62600844       8.69129515      15.55778649       0.05513948      -0.06098924      -0.00042842
Cl       1.72622469       8.69129515      10.03925876       0.05513901      -0.06098857       0.00042844
Cl       5.62600844       5.77352108      15.55778649       0.05513949       0.06098918      -0.00042839
Cl       6.07334282       3.86968974       7.02543807      -0.05513893      -0.06098812      -0.00042812
Cl       2.17355906       0.95191567       1.50691034      -0.05513964       0.06098815       0.00043138
Cl       4.95906985       2.41080270       4.73972416      -0.04021617       0.00000000       0.05346244
Cl       1.05928609       2.41080270       3.79262426      -0.04021675       0.00000000      -0.05346269
Cl       2.84049766       7.23240811      12.32497268       0.04021773       0.00000000      -0.05346145
Cl       6.74028141       7.23240811      13.27207257       0.04021737       0.00000001       0.05346218
Cl       7.61786067       0.94753090      12.81442129      -0.05860939       0.05539665      -0.01366161
Cl       3.71807692       3.87407450      12.78262396      -0.05860897      -0.05539673       0.01366145
Cl       0.18170684       5.76913631       4.25027555       0.05860834       0.05539730       0.01366322
Cl       4.08149059       8.69567991       4.28207287       0.05860947      -0.05539636      -0.01366127
Cl       0.18170684       8.69567991       4.25027555       0.05860833      -0.05539728       0.01366322
Cl       4.08149059       5.76913631       4.28207287       0.05860947       0.05539638      -0.01366127
Cl       7.61786067       3.87407450      12.81442129      -0.05860939      -0.05539664      -0.01366161
Cl       3.71807692       0.94753090      12.78262396      -0.05860897       0.05539674       0.01366146
Cl       7.16345694       2.41080270      10.31611521      -0.05859121       0.00000000       0.02705996
Cl       3.26367318       2.41080270      15.28093004      -0.05859161       0.00000000      -0.02705917
Cl       0.63611057       7.23240811       6.74858163       0.05859244      -0.00000000      -0.02705822
Cl       4.53589432       7.23240811       1.78376679       0.05859176       0.00000000       0.02706111
48
Lattice="7.894693558755425 0.0 0.0 0.0 9.76082253935137 0.0 0.0 0.0 17.272823404897043" Properties=species:S:1:pos:R:3:forces:R:3 energy=-470707.379163884 free_energy=-470707.379163884 pbc="T T T"
N        7.06280562       2.44020563       0.88016262      -0.05112061       0.00000003      -0.06230210
N        3.11545884       2.44020563       7.75624908      -0.05111904       0.00000003       0.06230395
N        0.83188794       7.32061690      16.39266078       0.05114168       0.00000003       0.06241516
N        4.77923472       7.32061690       9.51657433       0.05111840       0.00000003      -0.06230549
N        6.37227927       2.44020563       6.04703238      -0.09104264       0.00000004       0.08520185
N        2.42493249       2.44020563       2.58937932      -0.09104101       0.00000004      -0.08520602
N        1.52241428       7.32061690      11.22579103       0.09104144       0.00000004      -0.08520390
N        5.46976106       7.32061690      14.68344408       0.09104172       0.00000004       0.08520387
N        0.32228129       2.44020563      12.01619542      -0.10271144       0.00000004       0.05892897
N        4.26962806       2.44020563      13.89303969      -0.10271156       0.00000004      -0.05893003
N        7.57241227       7.32061690       5.25662799       0.10271146       0.00000004      -0.05893143
N        3.62506549       7.32061690       3.37978371       0.10271060       0.00000004       0.05892779
Cl       6.08205463       0.95493279       1.34016952       0.08715799       0.29076143      -0.16104546
Cl       2.13470785       3.92547848       7.29624218       0.08715723      -0.29076128       0.16104498
Cl       1.81263893       5.83534406      15.93265389      -0.08718092       0.29079782       0.16106415
Cl       5.75998571       8.80588975       9.97658122      -0.08715703      -0.29076121      -0.16104435
Cl       1.81263893       8.80588975      15.93265389      -0.08718094      -0.29079784       0.16106416
Cl       5.75998571       5.83534406       9.97658122      -0.08715700       0.29076120      -0.16104434
Cl       6.08205463       3.92547848       1.34016952       0.08715801      -0.29076147      -0.16104548
Cl       2.13470785       0.95493279       7.29624218       0.08715721       0.29076123       0.16104497
Cl       7.25264995       2.44020563      16.32966489      -0.15084379       0.00000000       0.34335468
Cl       3.30530317       2.44020563       9.57957021      -0.15084381       0.00000000      -0.34335594
Cl       0.64204361       7.32061690       0.94317578       0.15086874       0.00000001      -0.34351392
Cl       4.58939039       7.32061690       7.69325319       0.15084400       0.00000001       0.34335804
Cl       6.14741527       0.96352554       7.11112259      -0.04946703       0.34871735      -0.18842293
Cl       2.20006850       3.91688573       1.52528911      -0.04946774      -0.34871750       0.18842627
Cl       1.74727828       5.84393681      10.16170081       0.04946703       0.34871831       0.18842405
Cl       5.69462506       8.79729700      15.74753430       0.04946755      -0.34871899      -0.18842389
Cl       1.74727828       8.79729700      10.16170081       0.04946702      -0.34871834       0.18842408
Cl       5.69462506       5.84393681      15.74753430       0.04946755       0.34871895      -0.18842386
Cl       6.14741527       3.91688573       7.11112259      -0.04946702      -0.34871741      -0.18842296
Cl       2.20006850       0.96352554       1.52528911      -0.04946775       0.34871745       0.18842624
Cl       5.01955227       2.44020563       4.79753137       0.18392613       0.00000000       0.30918734
Cl       1.07220549       2.44020563       3.83888033       0.18392547      -0.00000000      -0.30918736
Cl       2.87514129       7.32061690      12.47529204      -0.18392473       0.00000001      -0.30918617
Cl       6.82248807       7.32061690      13.43394307      -0.18392512       0.00000001       0.30918707
Cl       7.71077057       0.95908730      12.97071012      -0.00141856       0.33486836      -0.18382803
Cl       3.76342379       3.92132397      12.93852499      -0.00141820      -0.33486845       0.18382803
Cl       0.18392299       5.83949857       4.30211328       0.00141749       0.33486932       0.18382971
Cl       4.13126977       8.80173524       4.33429842       0.00141858      -0.33486819      -0.18382778
Cl       0.18392299       8.80173524       4.30211328       0.00141747      -0.33486935       0.18382973
Cl       4.13126977       5.83949857       4.33429842       0.00141859       0.33486816      -0.18382775
Cl       7.71077057       3.92132397      12.97071012      -0.00141855      -0.33486842      -0.18382805
Cl       3.76342379       0.95908730      12.93852499      -0.00141821       0.33486840       0.18382801
Cl       7.25082478       2.44020563      10.44193389       0.08264855       0.00000000       0.32342117
Cl       3.30347800       2.44020563      15.46730122       0.08264800      -0.00000000      -0.32342008
Cl       0.64386878       7.32061690       6.83088951      -0.08264730       0.00000001      -0.32341874
Cl       4.59121556       7.32061690       1.80552219      -0.08264791       0.00000001       0.32342179
48
Lattice="7.987580827976189 0.0 0.0 0.0 9.875666281452459 0.0 0.0 0.0 17.476051736164447" Properties=species:S:1:pos:R:3:forces:R:3 energy=-470707.056215105 free_energy=-470707.056215105 pbc="T T T"
N        7.14590507       2.46891657       0.89051843      -0.26519031      -0.00000000      -0.17746194
N        3.15211466       2.46891657       7.84750744      -0.26518870      -0.00000000       0.17746389
N        0.84167576       7.40674971      16.58553331       0.26521666       0.00000000       0.17756045
N        4.83546617       7.40674971       9.62854430       0.26518783       0.00000000      -0.17746578
N        6.44725414       2.46891657       6.11818046      -0.31240927      -0.00000000       0.20544322
N        2.45346373       2.46891657       2.61984540      -0.31240774      -0.00000000      -0.20544713
N        1.54032668       7.40674971      11.35787127       0.31240777       0.00000003      -0.20544537
N        5.53411710       7.40674971      14.85620633       0.31240794       0.00000003       0.20544528
N        0.32607318       2.46891657      12.15757539      -0.34936433      -0.00000000       0.10699356
N        4.31986359       2.46891657      14.05650221      -0.34936464      -0.00000000      -0.10699450
N        7.66150765       7.40674971       5.31847634       0.34936422       0.00000000      -0.10699617
N        3.66771724       7.40674971       3.41954952       0.34936323       0.00000000       0.10699240
Cl       6.15361478       0.96616833       1.35593766       0.22334662       0.53687463      -0.25013434
Cl       2.15982437       3.97166481       7.38208820       0.22334581      -0.53687440       0.25013396
Cl       1.83396605       5.90400147      16.12011407      -0.22336977       0.53691060       0.25015155
Cl       5.82775646       8.90949795      10.09396353      -0.22334556      -0.53687414      -0.25013352
Cl       1.83396605       8.90949795      16.12011407      -0.22336977      -0.53691061       0.25015155
Cl       5.82775646       5.90400147      10.09396353      -0.22334556       0.53687414      -0.25013353
Cl       6.15361478       3.97166481       1.35593766       0.22334662      -0.53687461      -0.25013434
Cl       2.15982437       0.96616833       7.38208820       0.22334581       0.53687442       0.25013396
Cl       7.33798307       2.46891657      16.52179622      -0.20907236       0.00000000       0.64013411
Cl       3.34419266       2.46891657       9.69228138      -0.20907241      -0.00000000      -0.64013528
Cl       0.64959776       7.40674971       0.95427299       0.20909356       0.00000000      -0.64027522
Cl       4.64338817       7.40674971       7.78377036       0.20907247       0.00000000       0.64013697
Cl       6.21974444       0.97486217       7.19479054      -0.03964478       0.59973590      -0.35623706
Cl       2.22595403       3.96297097       1.54323533      -0.03964549      -0.59973589       0.35624031
Cl       1.76783639       5.91269532      10.28126120       0.03964475       0.59973649       0.35623772
Cl       5.76162680       8.90080411      15.93281640       0.03964522      -0.59973709      -0.35623737
Cl       1.76783639       8.90080411      10.28126120       0.03964474      -0.59973653       0.35623774
Cl       5.76162680       5.91269532      15.93281640       0.03964522       0.59973704      -0.35623736
Cl       6.21974444       3.96297097       7.19479054      -0.03964479      -0.59973590      -0.35623706
Cl       2.22595403       0.97486217       1.54323533      -0.03964549       0.59973589       0.35624031
Cl       5.07861124       2.46891657       4.85397809       0.38389978      -0.00000000       0.52986354
Cl       1.08482083       2.46891657       3.88404778       0.38389908       0.00000000      -0.52986347
Cl       2.90896958       7.40674971      12.62207364      -0.38389813      -0.00000000      -0.52986207
Cl       6.90276000       7.40674971      13.59200396      -0.38389857      -0.00000000       0.52986306
Cl       7.80149384       0.97037171      13.12332071       0.05447632       0.58299097      -0.33582716
Cl       3.80770342       3.96746143      13.09075689       0.05447673      -0.58299115       0.33582736
Cl       0.18608699       5.90820485       4.35273103      -0.05447731       0.58299199       0.33582844
Cl       4.17987740       8.90529457       4.38529484      -0.05447625      -0.58299070      -0.33582687
Cl       0.18608699       8.90529457       4.35273103      -0.05447732      -0.58299200       0.33582844
Cl       4.17987740       5.90820485       4.38529484      -0.05447625       0.58299070      -0.33582687
Cl       7.80149384       3.96746143      13.12332071       0.05447632      -0.58299098      -0.33582716
Cl       3.80770342       0.97037171      13.09075689       0.05447674       0.58299115       0.33582737
Cl       7.33613643       2.46891657      10.56479144       0.21176461      -0.00000000       0.58633532
Cl       3.34234601       2.46891657      15.64928616       0.21176406       0.00000000      -0.58633406
Cl       0.65144440       7.40674971       6.91126029      -0.21176335       0.00000000      -0.58633306
Cl       4.64523482       7.40674971       1.82676558      -0.21176393       0.00000000       0.58633617
48
Lattice="8.078356563073841 0.0 0.0 0.0 9.987899369991366 0.0 0.0 0.0 17.67466023567391" Properties=species:S:1:pos:R:3:forces:R:3 energy=-470706.499329221 free_energy=-470706.499329221 pbc="T T T"
N        7.22711549       2.49697484       0.90063882      -0.46787860      -0.00000000      -0.28535238
N        3.18793721       2.49697484       7.93669130      -0.46787698      -0.00000000       0.28535448
N        0.85124107       7.49092453      16.77402141       0.46790897      -0.00000000       0.28544029
N        4.89041936       7.49092453       9.73796894       0.46787541      -0.00000000      -0.28535935
N        6.52052467       2.49697484       6.18771119      -0.52030042      -0.00000001       0.31727340
N        2.48134639       2.49697484       2.64961892      -0.52029905      -0.00000001      -0.31727706
N        1.55783189       7.49092453      11.48694904       0.52029863       0.00000001      -0.31727773
N        5.59701018       7.49092453      15.02504131       0.52029874       0.00000001       0.31727726
N        0.32977887       2.49697484      12.29574149      -0.58132615       0.00000003       0.15143876
N        4.36895715       2.49697484      14.21624887      -0.58132634       0.00000003      -0.15144025
N        7.74857769       7.49092453       5.37891875       0.58132644      -0.00000003      -0.15144317
N        3.70939941       7.49092453       3.45841137       0.58132537      -0.00000003       0.15143949
Cl       6.22354821       0.97714845       1.37134737       0.35058202       0.75875560      -0.32808812
Cl       2.18436993       4.01680123       7.46598275       0.35058116      -0.75875533       0.32808783
Cl       1.85480836       5.97109814      16.30331287      -0.35060448       0.75878924       0.32810581
Cl       5.89398664       9.01075092      10.20867748      -0.35058035      -0.75875343      -0.32808982
Cl       1.85480836       9.01075092      16.30331287      -0.35060448      -0.75878923       0.32810582
Cl       5.89398664       5.97109814      10.20867748      -0.35058036       0.75875343      -0.32808982
Cl       6.22354821       4.01680123       1.37134737       0.35058203      -0.75875560      -0.32808811
Cl       2.18436993       0.97714845       7.46598275       0.35058116       0.75875533       0.32808783
Cl       7.42137638       2.49697484      16.70955998      -0.25705970      -0.00000000       0.90489130
Cl       3.38219810       2.49697484       9.80243037      -0.25705978       0.00000000      -0.90489261
Cl       0.65698018       7.49092453       0.96511793       0.25707623       0.00000000      -0.90500941
Cl       4.69615846       7.49092453       7.87222986       0.25705941       0.00000000       0.90489054
Cl       6.29042941       0.98594110       7.27655652      -0.02727896       0.81736872      -0.50493244
Cl       2.25125113       4.00800858       1.56077360      -0.02727967      -0.81736876       0.50493578
Cl       1.78792716       5.97989079      10.39810372       0.02727885       0.81736847       0.50493017
Cl       5.82710544       9.00195827      16.11388664       0.02727927      -0.81736891      -0.50493007
Cl       1.78792716       9.00195827      10.39810372       0.02727885      -0.81736846       0.50493017
Cl       5.82710544       5.97989079      16.11388664       0.02727926       0.81736891      -0.50493006
Cl       6.29042941       4.00800858       7.27655652      -0.02727895      -0.81736873      -0.50493244
Cl       2.25125113       0.98594110       1.56077360      -0.02727968       0.81736875       0.50493578
Cl       5.13632768       2.49697484       4.90914166       0.56084328       0.00000000       0.71909874
Cl       1.09714940       2.49697484       3.92818846       0.56084262      -0.00000000      -0.71909851
Cl       2.94202889       7.49092453      12.76551858      -0.56084187       0.00000000      -0.71909846
Cl       6.98120717       7.49092453      13.74647177      -0.56084229       0.00000000       0.71909902
Cl       7.89015477       0.98139961      13.27246212       0.10972982       0.80655734      -0.47410826
Cl       3.85097649       4.01255008      13.23952823       0.10973018      -0.80655753       0.47410817
Cl       0.18820180       5.97534929       4.40219811      -0.10973070       0.80655835       0.47410915
Cl       4.22738008       9.00649976       4.43513201      -0.10972972      -0.80655680      -0.47410759
Cl       0.18820180       9.00649976       4.40219811      -0.10973069      -0.80655831       0.47410914
Cl       4.22738008       5.97534929       4.43513201      -0.10972973       0.80655684      -0.47410760
Cl       7.89015477       4.01255008      13.27246212       0.10972983      -0.80655739      -0.47410827
Cl       3.85097649       0.98139961      13.23952823       0.10973017       0.80655749       0.47410816
Cl       7.41950875       2.49697484      10.68485617       0.33136481      -0.00000000       0.81966551
Cl       3.38033047       2.49697484      15.82713418       0.33136407      -0.00000000      -0.81966438
Cl       0.65884781       7.49092453       6.98980407      -0.33136351       0.00000001      -0.81966678
Cl       4.69802609       7.49092453       1.84752605      -0.33136409       0.00000001       0.81967007
8
Lattice="4.73988557984502 -0.00893378670936419 -2.05689992855361 -2.6968236200810596 4.279655198024847 -1.0531435417828434 -0.005629439618715253 0.00893378670936419 5.166944345774185" Properties=species:S:1:pos:R:3:forces:R:3 energy=-41779.2409600593 free_energy=-41779.2409600593 pbc="T T T"
K       -2.02683979       3.21644174       3.08535061       0.00009049       0.00027120       0.00057967
K       -0.67561327       1.07214725       1.02845021      -0.00009069      -0.00027119      -0.00057988
N        2.36712807      -0.00000000       1.55502221      -0.00000005      -0.00000011       0.00000005
N        1.02153098       2.13536071      -1.55502174      -0.00000025      -0.00000008      -0.00000006
N        1.94964549       2.72020528      -1.55502574       9.40737242       5.92859711       0.00003128
N        1.99858838       0.58484459       0.70322589      -3.73630964       5.92852604      -8.63402499
N        0.03884414       3.69481060       1.35367498       3.73630965      -5.92852630       8.63402532
N        0.08778703       1.55944992       3.61192662      -9.40737193      -5.92859667      -0.00003139
8
Lattice="4.817602435073737 -0.00908026826395872 -2.090625593714621 -2.741041702422633 4.349825951696205 -1.0704112590711734 -0.00572174191937138 0.00908026826395872 5.251663408909988" Properties=species:S:1:pos:R:3:forces:R:3 energy=-41780.2178056639 free_energy=-41780.2178056639 pbc="T T T"
K       -2.06007258       3.26917966       3.13593912      -0.00002248      -0.00002884       0.00062641
K       -0.68669086       1.08972655       1.04531304       0.00002626       0.00003331      -0.00062859
N        2.40594034      -0.00000000       1.58051891       0.00000199      -0.00000107       0.00000239
N        1.03828037       2.17037284      -1.58051843      -0.00000518      -0.00000285      -0.00000040
N        1.98161257       2.76480674      -1.58052250       7.06804921       4.45444150      -0.00018205
N        2.03135795       0.59443391       0.71475624      -2.80736820       4.45500645      -6.48781895
N        0.03948104       3.75539204       1.37587032       2.80736972      -4.45500615       6.48781966
N        0.08922642       1.58501921       3.67114905      -7.06805133      -4.45444234       0.00018152
8
Lattice="4.892889633612387 -0.009222170375805024 -2.1232968957295135 -2.7838773979027343 4.417802961930531 -1.0871391369037209 -0.005811158579562028 0.009222170375805024 5.333733905812399" Properties=species:S:1:pos:R:3:forces:R:3 energy=-41780.9192176926 free_energy=-41780.9192176926 pbc="T T T"
K       -2.09226641       3.32026885       3.18494608      -0.00021584      -0.00005312       0.00052654
K       -0.69742214       1.10675628       1.06164870       0.00021338       0.00005108      -0.00052605
N        2.44353923      -0.00000000       1.60521851      -0.00000160      -0.00000052      -0.00000059
N        1.05450612       2.20429040      -1.60521802       0.00000360       0.00000198       0.00000031
N        2.01258027       2.80801382      -1.60522215       5.05465150       3.18470109      -0.00027530
N        2.06310305       0.60372344       0.72592611      -2.00773309       3.18574503      -4.63945810
N        0.04009803       3.81407952       1.39737177       2.00773065      -3.18574589       4.63945746
N        0.09062080       1.60978914       3.72852002      -5.05464859      -3.18469966       0.00027572
8
Lattice="4.9659286052325635 -0.009359835005664568 -2.1549925670651247 -2.8254339335054692 4.48375004214737 -1.1033674867160732 -0.005897905078738551 0.009359835005664568 5.413353612886925" Properties=species:S:1:pos:R:3:forces:R:3 energy=-41781.3972750512 free_energy=-41781.3972750512 pbc="T T T"
K       -2.12349888       3.36983241       3.23248960      -0.00061438      -0.00007891       0.00028978
K       -0.70783296       1.12327747       1.07749654       0.00061189       0.00007864      -0.00029118
N        2.48001535       0.00000000       1.62918053      -0.00000015      -0.00000201       0.00000190
N        1.07024734       2.23719510      -1.62918003       0.00000235       0.00000227      -0.00000069
N        2.04262321       2.84993065      -1.62918422       3.31663065       2.08879479      -0.00032550
N        2.09390017       0.61273557       0.73676242      -1.31730518       2.08950740      -3.04310679
N        0.04069660       3.87101447       1.41823114       1.31730419      -2.08950917       3.04310808
N        0.09197355       1.63381939       3.78417778      -3.31662937      -2.08879301       0.00032440
8
Lattice="5.0368800283674 -0.009493565001955577 -2.185782335028594 -2.865802729453208 4.547812269328008 -1.1191320092548636 -0.005982172250523853 0.009493565001955577 5.490697685526578" Properties=species:S:1:pos:R:3:forces:R:3 energy=-41781.693802526 free_energy=-41781.693802526 pbc="T T T"
K       -2.15383867       3.41797938       3.27867426      -0.00077152      -0.00019529       0.00004648
K       -0.71794623       1.13932646       1.09289142       0.00077007       0.00019275      -0.00004480
N        2.51544892      -0.00000000       1.65245768      -0.00000250       0.00000154      -0.00000339
N        1.08553865       2.26915935      -1.65245718       0.00000486       0.00000221       0.00000100
N        2.07180749       2.89064945      -1.65246143       1.81158982       1.14061024      -0.00022932
N        2.12381707       0.62149012       0.74728902      -0.71920859       1.14076408      -1.66147165
N        0.04127806       3.92632215       1.43849432       0.71920648      -1.14076476       1.66147111
N        0.09328764       1.65716282       3.83824477      -1.81158862      -1.14061077       0.00023057
8
Lattice="5.10588696 -0.00962363 -2.21572828 -2.90506518 4.61011881 -1.13446449 -0.00606413 0.00962363 5.56592207" Properties=species:S:1:pos:R:3:forces:R:3 energy=-41781.8421112665 free_energy=-41781.8421112665 pbc="T T T"
K       -2.18334698       3.46480683       3.32359319      -0.00024864      -0.00005652       0.00022705
K       -0.72778233       1.15493561       1.10786440       0.00025072       0.00005407      -0.00022315
N        2.54991141      -0.00000000       1.67509690      -0.00000308       0.00000546      -0.00000783
N        1.10041089       2.30024759      -1.67509639       0.00000019      -0.00000193       0.00000222
N        2.10019194       2.93025231      -1.67510070       0.50585300       0.31889228      -0.00010497
N        2.15291407       0.63000474       0.75752713      -0.20060016       0.31861080      -0.46427406
N        0.04184358       3.98011407       1.45820217       0.20059978      -0.31860962       0.46427269
N        0.09456571       1.67986650       3.89083000      -0.50585181      -0.31889454       0.00010806
8
Lattice="5.173077388366819 -0.009750271233385973 -2.2448859431923074 -2.9432941058275564 4.670785225079786 -1.1493933663435616 -0.006143930335488053 0.009750271233385973 5.639166286150768" Properties=species:S:1:pos:R:3:forces:R:3 energy=-41781.868789033 free_energy=-41781.868789033 pbc="T T T"
K       -2.21207852       3.51040162       3.36732969       0.00070665       0.00019706       0.00059080
K       -0.73735951       1.17013387       1.12244324      -0.00069757      -0.00019606      -0.00058588
N        2.58346672      -0.00000000       1.69714018      -0.00000023       0.00000915      -0.00000988
N        1.11489164       2.33051748      -1.69713966      -0.00001259      -0.00001062       0.00000275
N        2.12782921       2.96881268      -1.69714403      -0.62802527      -0.39474073      -0.00002772
N        2.18124514       0.63829523       0.76749574       0.24925529      -0.39480772       0.57474257
N        0.04239422       4.03249000       1.47739124      -0.24925069       0.39481245      -0.57474430
N        0.09581014       1.70197254       3.94203100       0.62802441       0.39473646       0.00003167
8
Lattice="5.238566332830123 -0.009873705491829757 -2.273305237902798 -2.9805549487968057 4.7299153658530795 -1.163944194155308 -0.0062217098625123365 0.009873705491829757 5.7105557164661835" Properties=species:S:1:pos:R:3:forces:R:3 energy=-41781.7954895074 free_energy=-41781.7954895074 pbc="T T T"
K       -2.24008249       3.55484180       3.40995865       0.00106537       0.00029511       0.00071542
K       -0.74669417       1.18494727       1.13665289      -0.00106670      -0.00029870      -0.00071256
N        2.61617231       0.00000000       1.71862524      -0.00000392       0.00000301      -0.00000581
N        1.12900569       2.36002083      -1.71862472       0.00000585       0.00000218       0.00000172
N        2.15476662       3.00639658      -1.71862914      -1.61307477      -1.01536552      -0.00005999
N        2.20885876       0.64637577       0.77721190       0.63987681      -1.01506647       1.47819271
N        0.04293091       4.08353959       1.49609438      -0.63987934       1.01506595      -1.47819374
N        0.09702305       1.72351879       3.99193543       1.61307670       1.01536445       0.00006225
8
Lattice="5.302457584903694 -0.00999412840267947 -2.301031205040939 -3.0169067625286035 4.787602945951567 -1.1781400346169044 -0.006297591851571668 0.00999412840267947 5.780203503967579" Properties=species:S:1:pos:R:3:forces:R:3 energy=-41781.6400706562 free_energy=-41781.6400706562 pbc="T T T"
K       -2.26740326       3.59819781       3.45154761       0.00043376       0.00008642       0.00049939
K       -0.75580109       1.19939927       1.15051587      -0.00043387      -0.00009072      -0.00049498
N        2.64807999      -0.00000000       1.73958615      -0.00000488       0.00000545      -0.00000897
N        1.14277541       2.38880441      -1.73958563       0.00000519       0.00000088       0.00000270
N        2.18104685       3.04306357      -1.73959010      -2.46988171      -1.55585039      -0.00014726
N        2.23579872       0.65425918       0.78669103       0.97993893      -1.55535242       2.26532689
N        0.04345451       4.13334377       1.51434123      -0.97994136       1.55535246      -2.26532845
N        0.09820638       1.74453938       4.04062237       2.46988394       1.55584830       0.00015068
8
Lattice="5.36484516227513 -0.010111717171471772 -2.3281046441095112 -3.0524030396898816 4.843932854193482 -1.192001777287569 -0.006371687965044076 0.010111717171471772 5.848212137238518" Properties=species:S:1:pos:R:3:forces:R:3 energy=-41781.4173065133 free_energy=-41781.4173065133 pbc="T T T"
K       -2.29408104       3.64053343       3.49215778      -0.00045632      -0.00005777       0.00014811
K       -0.76469368       1.21351114       1.16405260       0.00045295       0.00005473      -0.00014716
N        2.67923673       0.00000000       1.76005375      -0.00000277      -0.00000010      -0.00000183
N        1.15622106       2.41691057      -1.76005322       0.00000751       0.00000417       0.00000073
N        2.20670858       3.07886760      -1.76005774      -3.21647076      -2.02703170      -0.00022136
N        2.26210465       0.66195705       0.79594707       1.27648919      -2.02646729       2.95183060
N        0.04396578       4.18197580       1.53215865      -1.27649249       2.02646574      -2.95183105
N        0.09936185       1.76506525       4.08816346       3.21647269       2.02703222       0.00022196
8
Lattice="5.425814531321753 -0.010226632886142851 -2.354562643722248 -3.0870924075610247 4.898982258396442 -1.2055484117318807 -0.006444099709137348 0.010226632886142851 5.914674783088118" Properties=species:S:1:pos:R:3:forces:R:3 energy=-41781.1395857849 free_energy=-41781.1395857849 pbc="T T T"
K       -2.32015238       3.68190667       3.53184478      -0.00077434      -0.00001779      -0.00006135
K       -0.77338413       1.22730222       1.17728160       0.00078047       0.00001533       0.00006795
N        2.70968521       0.00000000       1.78005607      -0.00000413       0.00001143      -0.00001470
N        1.16936106       2.44437781      -1.78005553      -0.00000550      -0.00000742       0.00000425
N        2.23178696       3.11385773      -1.78006011      -3.86718750      -2.43762502      -0.00023307
N        2.28781259       0.66947994       0.80499270       1.53511833      -2.43711204       3.55025030
N        0.04446544       4.22950232       1.54957103      -1.53511639       2.43711545      -3.55025252
N        0.10049106       1.78512453       4.13462384       3.86718904       2.43762006       0.00023914
40
Lattice="8.666556236951271 -0.0 -3.064090125610772 -4.333278591917696 7.505458092935136 -3.064090125610772 -0.0 -0.0 9.192270376832317" Properties=species:S:1:pos:R:3:forces:R:3 energy=-469246.622168258 free_energy=-469246.622168258 pbc="T T T"
Ca      -0.79607597       2.03801235      -0.90261029       0.69012409       0.39287941       0.17161119
Ca      -0.82622142       5.51967382      -0.98789225       0.38261495       0.14607157      -0.69836486
Ca       6.46613254       0.27735617       2.07621013      -0.31641197       0.26092609      -0.70158219
Ca       1.94619939       3.47537287      -0.72392861      -0.76999017      -0.26367108      -0.06696259
Ca      -0.00363961       3.42314479       2.16149209      -0.01142669      -0.79479843       0.16636754
Ca       2.32314432       0.05222058      -0.44967735       0.14387448       0.53338315       0.59756823
Ca       0.79970210       2.04430846       5.22557609      -0.68396279       0.40525038       0.16987007
Ca      -1.81622642       3.70050847       5.40425776       0.60889603      -0.53343904      -0.06568725
Ca       0.95984652       5.73851332      -3.51377360      -0.52903160      -0.14439016       0.59778098
Ca       5.38357792       1.71471670      -0.44967122       0.39492428      -0.38922133       0.59753381
Ca      -0.12998645       0.32958426       2.34017376       0.15403434       0.79560600      -0.06150424
Ca       3.02665764       1.70842059       2.07620400      -0.06933953      -0.40365116      -0.69843941
Ca       6.14950406       3.80494962      -2.34016764      -0.60889603       0.53343902       0.06568737
Ca       3.53357555       5.46114963      -2.16148596       0.68396271      -0.40525029      -0.16987011
Ca       2.01013332       7.45323752       3.51376747      -0.14387442      -0.53338326      -0.59756810
Ca       4.33691725       4.08231331       0.90259804       0.01142666       0.79479836      -0.16636756
Ca       2.38707825       4.03008522       3.78801874       0.76999020       0.26367113       0.06696262
Ca      -2.13285490       7.22810192       0.98788000       0.31641206      -0.26092611       0.70158221
Ca       5.15949906       1.98578427       4.05198238      -0.38261483      -0.14607156       0.69836475
Ca       5.12935361       5.46744575       3.96670042      -0.69012402      -0.39287948      -0.17161126
Ca       3.37343112       1.76694478       6.57786373       0.52903162       0.14439009      -0.59778094
Ca      -1.05030027       5.79074139       3.51376135      -0.39492433       0.38922138      -0.59753386
Ca       4.46326410       7.17587383       0.72391636      -0.15403441      -0.79560601       0.06150436
Ca       1.30662000       5.79703750       0.98788613       0.06933960       0.40365126       0.69843940
N       -0.91153208       5.33154839       1.28910046      -0.00121365       0.00398696       0.00302961
N       -2.90638337       5.62909357       4.83907979      -0.00304481       0.00052606      -0.00176536
N        6.67170495       0.29754518       4.35319059      -0.00140153      -0.00359976       0.00324007
N        2.90638290       1.87636452       4.35319059       0.00340009       0.00011426       0.00283558
N        4.16149011       3.45518387      -1.28910046       0.00185858       0.00189009      -0.00209689
N        3.07817043       5.92663875      -4.35319059       0.00256175      -0.00265524      -0.00443138
N        5.24480973       2.17390970       1.77498966       0.00121352      -0.00398694      -0.00302954
N        7.23966102       1.87636452      -1.77498966       0.00304478      -0.00052599       0.00176533
N       -2.33842730       7.20791291      -1.28910046       0.00140151       0.00359982      -0.00324012
N        1.42689475       5.62909357      -1.28910046      -0.00340015      -0.00011428      -0.00283558
N        0.17178753       4.05027423       4.35319059      -0.00185853      -0.00189020       0.00209693
N        1.25510721       1.57881934       7.41728072      -0.00256176       0.00265531       0.00443135
N       -2.16663930       3.75272905      -1.53204506      -0.00000002      -0.00000004      -0.00000005
N        4.33327812       0.00000000      -1.53204506      -0.00000004       0.00000004      -0.00000003
N        0.00000000       0.00000000       4.59613519      -0.00000001       0.00000002      -0.00000003
N        2.16663882       3.75272905       1.53204507       0.00000003      -0.00000004      -0.00000005
40
Lattice="8.808656185368317 -0.0 -3.1143300406231558 -4.404328573888945 7.628520261885829 -3.1143300406231558 -0.0 -0.0 9.342990121869468" Properties=species:S:1:pos:R:3:forces:R:3 energy=-469250.815909085 free_energy=-469250.815909085 pbc="T T T"
Ca      -0.80912871       2.07142833      -0.91740981       0.51814524       0.29765779       0.12466397
Ca      -0.83976844       5.61017636      -1.00409009       0.28804742       0.10556022      -0.52589240
Ca       6.57215356       0.28190380       2.11025241      -0.23445771       0.20152762      -0.52852764
Ca       1.97810997       3.53235633      -0.73579841      -0.57900146      -0.20282197      -0.04771926
Ca      -0.00369929       3.47927189       2.19693269      -0.00580949      -0.60104925       0.11941303
Ca       2.36123543       0.05307680      -0.45705042       0.11295132       0.39914780       0.45130268
Ca       0.81281430       2.07782767       5.31125650      -0.51513397       0.30174527       0.12376566
Ca      -1.84600591       3.76118333       5.49286790       0.45972857      -0.39728140      -0.04451250
Ca       0.97558451       5.83260403      -3.57138669      -0.39605313      -0.10366978       0.45077988
Ca       5.47184898       1.74283181      -0.45704419       0.29119442      -0.29689878       0.45151563
Ca      -0.13211776       0.33498824       2.37854409       0.11263816       0.59745914      -0.04138086
Ca       3.07628380       1.73643246       2.11024618      -0.05876514      -0.30284476      -0.52609314
Ca       6.25033353       3.86733693      -2.37853786      -0.45972871       0.39728145       0.04451253
Ca       3.59151331       5.55069259      -2.19692646       0.51513402      -0.30174527      -0.12376563
Ca       2.04309218       7.57544346       3.57138046      -0.11295128      -0.39914775      -0.45130266
Ca       4.40802690       4.14924837       0.91739736       0.00580953       0.60104930      -0.11941309
Ca       2.42621764       4.09616393       3.85012845       0.57900149       0.20282201       0.04771934
Ca      -2.16782595       7.34661646       1.00407763       0.23445771      -0.20152759       0.52852767
Ca       5.24409605       2.01834390       4.11842013      -0.28804743      -0.10556019       0.52589238
Ca       5.21345632       5.55709194       4.03173985      -0.51814525      -0.29765790      -0.12466395
Ca       3.42874311       1.79591623       6.68571673       0.39605299       0.10366979      -0.45077993
Ca      -1.06752137       5.88568846       3.57137423      -0.29119442       0.29689874      -0.45151556
Ca       4.53644537       7.29353202       0.73578595      -0.11263819      -0.59745917       0.04138094
Ca       1.32804381       5.89208780       1.00408386       0.05876520       0.30284475       0.52609316
N       -0.92647789       5.41896636       1.31023702       0.00245430      -0.00255023      -0.00229816
N       -2.95403747       5.72139020       4.91842307       0.00434422       0.00033466       0.00334661
N        6.78109660       0.30242384       4.42456706       0.00198003       0.00269202      -0.00219037
N        2.95403699       1.90713007       4.42456706      -0.00372387      -0.00024319      -0.00219998
N        4.22972339       3.51183629      -1.31023702      -0.00214557      -0.00393610       0.00309583
N        3.12864121       6.02381403      -4.42456706      -0.00070199       0.00354738       0.00069155
N        5.33080550       2.20955390       1.80409302      -0.00245427       0.00255025       0.00229816
N        7.35836508       1.90713007      -1.80409302      -0.00434419      -0.00033479      -0.00334669
N       -2.37676899       7.32609642      -1.31023702      -0.00198004      -0.00269200       0.00219041
N        1.45029062       5.72139020      -1.31023702       0.00372388       0.00024308       0.00219999
N        0.17460422       4.11668397       4.42456706       0.00214556       0.00393616      -0.00309582
N        1.27568640       1.60470623       7.53889710       0.00070201      -0.00354732      -0.00069154
N       -2.20216429       3.81426013      -1.55716502       0.00000002       0.00000002      -0.00000002
N        4.40432809       0.00000000      -1.55716502       0.00000005      -0.00000001      -0.00000000
N        0.00000000       0.00000000       4.67149507       0.00000000      -0.00000003      -0.00000012
N        2.20216381       3.81426013       1.55716503      -0.00000004       0.00000002      -0.00000011
40
Lattice="8.946313672889158 -0.0 -3.1629993086342028 -4.473157325169404 7.747735146728007 -3.1629993086342028 -0.0 -0.0 9.48899792590261" Properties=species:S:1:pos:R:3:forces:R:3 energy=-469253.758387562 free_energy=-469253.758387562 pbc="T T T"
Ca      -0.82177339       2.10379962      -0.93174665       0.37402734       0.21737621       0.08500909
Ca      -0.85289194       5.69784953      -1.01978153       0.20953446       0.06969490      -0.37914475
Ca       6.67486005       0.28630926       2.14323043      -0.16420771       0.14978972      -0.38114910
Ca       2.00902293       3.58755831      -0.74729711      -0.41699030      -0.14979969      -0.03018299
Ca      -0.00375710       3.53364430       2.23126530      -0.00132555      -0.43530977       0.07981205
Ca       2.39813569       0.05390626      -0.46419299       0.08565772       0.28361327       0.32495803
Ca       0.82551657       2.11029897       5.39425829      -0.37156318       0.21444638       0.08613722
Ca      -1.87485442       3.81996131       5.57870783       0.33207422      -0.28278972      -0.02691967
Ca       0.99083048       5.92375319      -3.62719862      -0.28509798      -0.06902128       0.32628624
Ca       5.55736043       1.77006795      -0.46418666       0.20325625      -0.21897492       0.32712846
Ca      -0.13418243       0.34022328       2.41571484       0.07664629       0.42919764      -0.02505654
Ca       3.12435850       1.76356860       2.14322410      -0.04763322      -0.21720456      -0.37936349
Ca       6.34801076       3.92777384      -2.41570852      -0.33207419       0.28278968       0.02691967
Ca       3.64763977       5.63743618      -2.23125898       0.37156326      -0.21444636      -0.08613729
Ca       2.07502066       7.69382888       3.62719229      -0.08565774      -0.28361325      -0.32495795
Ca       4.47691344       4.21409085       0.93173400       0.00132563       0.43530979      -0.07981188
Ca       2.46413342       4.16017684       3.91029642       0.41699018       0.14979956       0.03018292
Ca      -2.20170370       7.46142588       1.01976888       0.16420766      -0.14978958       0.38114911
Ca       5.32604829       2.04988562       4.18278084      -0.20953454      -0.06969492       0.37914475
Ca       5.29492974       5.64393553       4.09474596      -0.37402733      -0.21737626      -0.08500909
Ca       3.48232587       1.82398196       6.79019793       0.28509790       0.06902121      -0.32628633
Ca      -1.08420409       5.97766719       3.62718597      -0.20325618       0.21897498      -0.32712848
Ca       4.60733878       7.40751187       0.74728446      -0.07664632      -0.42919766       0.02505668
Ca       1.34879785       5.98416654       1.01977520       0.04763323       0.21720464       0.37936364
N       -0.94095644       5.50365139       1.33071278       0.00461965      -0.00631073      -0.00510151
N       -3.00020176       5.81080136       4.99528584       0.00790508       0.00038303       0.00633117
N        6.88706835       0.30714997       4.49371209       0.00412665       0.00633322      -0.00509259
N        3.00020127       1.93693379       4.49371209      -0.00770349      -0.00053519      -0.00500714
N        4.29582349       3.56671760      -1.33071278      -0.00428818      -0.00719442       0.00603917
N        3.17753413       6.11795133      -4.49371209      -0.00246261       0.00666279       0.00378622
N        5.41411279       2.24408376       1.83228653      -0.00461968       0.00631070       0.00510148
N        7.47335811       1.93693379      -1.83228653      -0.00790516      -0.00038308      -0.00633121
N       -2.41391201       7.44058517      -1.33071278      -0.00412659      -0.00633318       0.00509255
N        1.47295507       5.81080136      -1.33071278       0.00770357       0.00053514       0.00500710
N        0.17733285       4.18101755       4.49371209       0.00428821       0.00719442      -0.00603918
N        1.29562222       1.62978381       7.65671139       0.00246263      -0.00666270      -0.00378613
N       -2.23657866       3.87386757      -1.58149965      -0.00000001       0.00000003      -0.00000002
N        4.47315684       0.00000000      -1.58149965      -0.00000003      -0.00000001      -0.00000003
N        0.00000000       0.00000000       4.74449897       0.00000000      -0.00000002      -0.00000009
N        2.23657817       3.87386757       1.58149966       0.00000003       0.00000000      -0.00000007
40
Lattice="9.07986043142843 -0.0 -3.2102152145788065 -4.539930711734517 7.863390035735736 -3.2102152145788065 -0.0 -0.0 9.63064564373642" Properties=species:S:1:pos:R:3:forces:R:3 energy=-469255.686688675 free_energy=-469255.686688675 pbc="T T T"
Ca      -0.83404047       2.13520425      -0.94565537       0.25042097       0.14913169       0.05036682
Ca      -0.86562355       5.78290460      -1.03500439       0.14245652       0.03810309      -0.25305686
Ca       6.77449951       0.29058316       2.17522366      -0.10307832       0.10387952      -0.25496987
Ca       2.03901277       3.64111185      -0.75845245      -0.27817674      -0.10236872      -0.01417495
Ca      -0.00381318       3.58639303       2.26457268       0.00153934      -0.29164745       0.04674864
Ca       2.43393404       0.05471095      -0.47112226       0.06189427       0.18458761       0.21693752
Ca       0.83783953       2.14180062       5.47478148      -0.24881503       0.14020186       0.05493247
Ca      -1.90284144       3.87698407       5.66198440       0.22421505      -0.18535650      -0.01318832
Ca       1.00562117       6.01218045      -3.68134389      -0.19102222      -0.03847168       0.21981647
Ca       5.64031834       1.79649077      -0.47111584       0.12974090      -0.15199772       0.21965250
Ca      -0.13618545       0.34530198       2.45177561       0.04452879       0.28649925      -0.01153806
Ca       3.17099759       1.78989440       2.17521724      -0.03575494      -0.14318069      -0.25375754
Ca       6.44277116       3.98640597      -2.45176919      -0.22421516       0.18535644       0.01318843
Ca       3.70209019       5.72158942      -2.26456626       0.24881503      -0.14020191      -0.05493247
Ca       2.10599568       7.80867908       3.68133748      -0.06189426      -0.18458758      -0.21693757
Ca       4.54374290       4.27699700       0.94564253      -0.00153934       0.29164751      -0.04674865
Ca       2.50091695       4.22227818       3.96866766       0.27817676       0.10236878       0.01417500
Ca      -2.23456979       7.57280687       1.03499156       0.10307829      -0.10387941       0.25496984
Ca       5.40555327       2.08048544       4.24521961      -0.14245652      -0.03810311       0.25305680
Ca       5.37397019       5.72818579       4.15587059      -0.25042098      -0.14913174      -0.05036683
Ca       3.53430855       1.85120958       6.89155911       0.19102227       0.03847170      -0.21981651
Ca      -1.10038862       6.06689926       3.68133106      -0.12974086       0.15199779      -0.21965258
Ca       4.67611517       7.51808805       0.75843961      -0.04452879      -0.28649921       0.01153805
Ca       1.36893213       6.07349563       1.03499797       0.03575498       0.14318074       0.25375761
N       -0.95500264       5.58580755       1.35057709       0.00576576      -0.00843738      -0.00633763
N       -3.04498750       5.89754253       5.06985334       0.00965360       0.00049451       0.00797856
N        6.98987558       0.31173498       4.56079230       0.00546093       0.00818240      -0.00649032
N        3.04498700       1.96584751       4.56079230      -0.01001372      -0.00048607      -0.00678414
N        4.35994972       3.61996004      -1.35057709      -0.00511579      -0.00895393       0.00767546
N        3.22496700       6.20927750      -4.56079230      -0.00375753       0.00815504       0.00578431
N        5.49493236       2.27758249       1.85963812      -0.00576574       0.00843735       0.00633770
N        7.58491722       1.96584751      -1.85963812      -0.00965360      -0.00049459      -0.00797858
N       -2.44994586       7.55165506      -1.35057709      -0.00546095      -0.00818243       0.00649041
N        1.49494272       5.89754253      -1.35057709       0.01001370       0.00048601       0.00678420
N        0.17998000       4.24343000       4.56079230       0.00511577       0.00895389      -0.00767543
N        1.31496272       1.65411253       7.77100752       0.00375754      -0.00815501      -0.00578431
N       -2.26996536       3.93169502      -1.60510760       0.00000003      -0.00000000      -0.00000006
N        4.53993022       0.00000000      -1.60510760      -0.00000003      -0.00000002      -0.00000003
N        0.00000000       0.00000000       4.81532283       0.00000001      -0.00000000      -0.00000005
N        2.26996486       3.93169502       1.60510761       0.00000000      -0.00000002      -0.00000004
40
Lattice="9.209590250499273 -0.0 -3.2560816287281105 -4.604795628356899 7.9757393580985 -3.2560816287281105 -0.0 -0.0 9.768244886184332" Properties=species:S:1:pos:R:3:forces:R:3 energy=-469256.790901129 free_energy=-469256.790901129 pbc="T T T"
Ca      -0.84595695       2.16571129      -0.95916656       0.14384909       0.09057440       0.02080073
Ca      -0.87799127       5.86552869      -1.04979217       0.08379851       0.01199683      -0.14504886
Ca       6.87129116       0.29473491       2.20630248      -0.05197238       0.06442641      -0.14555753
Ca       2.06814546       3.69313477      -0.76928895      -0.15829156      -0.06232383      -0.00177345
Ca      -0.00386766       3.63763414       2.29692809       0.00203168      -0.16739410       0.01898652
Ca       2.46870922       0.05549264      -0.47785349       0.04053461       0.10006297       0.12586203
Ca       0.84981029       2.17240190       5.55300321      -0.14591036       0.07843443       0.02680276
Ca      -1.93002857       3.93237704       5.74288082       0.13234002      -0.10245656      -0.00261860
Ca       1.01998913       6.09808035      -3.73394163      -0.10879151      -0.01211273       0.12855686
Ca       5.72090521       1.82215839      -0.47784698       0.06895446      -0.09362883       0.12695522
Ca      -0.13813122       0.35023554       2.48680570       0.01675425       0.16560296      -0.00022921
Ca       3.21630368       1.81546778       2.20629597      -0.02558000      -0.08025461      -0.14627951
Ca       6.53482319       4.04336232      -2.48679919      -0.13234002       0.10245650       0.00261862
Ca       3.75498434       5.80333746      -2.29692158       0.14591032      -0.07843442      -0.02680276
Ca       2.13608540       7.92024672       3.73393512      -0.04053460      -0.10006301      -0.12586205
Ca       4.60866228       4.33810522       0.95915354      -0.00203166       0.16739403      -0.01898657
Ca       2.53664916       4.28260459       4.02537057       0.15829155       0.06232381       0.00177352
Ca      -2.26649653       7.68100444       1.04977915       0.05197231      -0.06442627       0.14555750
Ca       5.48278589       2.11021067       4.30587380      -0.08379850      -0.01199684       0.14504881
Ca       5.45075157       5.81002807       4.21524819      -0.14384901      -0.09057439      -0.02080080
Ca       3.58480549       1.87765901       6.99002326       0.10879156       0.01211273      -0.12855687
Ca      -1.11611058       6.15358096       3.73392861      -0.06895452       0.09362893      -0.12695518
Ca       4.74292584       7.62550382       0.76927592      -0.01675420      -0.16560298       0.00022930
Ca       1.38849094       6.16027158       1.04978566       0.02558003       0.08025457       0.14627949
N       -0.96864738       5.66561558       1.36987366       0.00611753      -0.00935397      -0.00675306
N       -3.08849320       5.98180452       5.14228960       0.01070874       0.00046757       0.00880661
N        7.08974443       0.31618894       4.62595528       0.00601261       0.00892588      -0.00692260
N        3.08849269       1.99393484       4.62595528      -0.01115263      -0.00007764      -0.00795968
N        4.42224313       3.67168074      -1.36987366      -0.00534535      -0.00970850       0.00825762
N        3.27104419       6.29799345      -4.62595528      -0.00476874       0.00886070       0.00684098
N        5.57344200       2.31012378       1.88620797      -0.00611751       0.00935397       0.00675307
N        7.69328782       1.99393484      -1.88620797      -0.01070873      -0.00046760      -0.00880662
N       -2.48494981       7.65955042      -1.36987366      -0.00601262      -0.00892589       0.00692268
N        1.51630193       5.98180452      -1.36987366       0.01115264       0.00007761       0.00795975
N        0.18255149       4.30405862       4.62595528       0.00534534       0.00970848      -0.00825756
N        1.33375044       1.67774590       7.88203691       0.00476868      -0.00886062      -0.00684099
N       -2.30239781       3.98786968      -1.62804081      -0.00000002      -0.00000000      -0.00000002
N        4.60479513       0.00000000      -1.62804081      -0.00000002       0.00000000      -0.00000002
N        0.00000000       0.00000000       4.88412245       0.00000002       0.00000000      -0.00000006
N        2.30239731       3.98786968       1.62804082      -0.00000000       0.00000001      -0.00000006
40
Lattice="9.3357647 -0.0 -3.30069103 -4.66788286 8.08500964 -3.30069103 -0.0 -0.0 9.90207309" Properties=species:S:1:pos:R:3:forces:R:3 energy=-469257.225317052 free_energy=-469257.225317052 pbc="T T T"
Ca      -0.85754684       2.19538225      -0.97230746       0.05131349       0.04047058      -0.00398204
Ca      -0.89002004       5.94588838      -1.06417467       0.03321344      -0.00913446      -0.05267239
Ca       6.96543013       0.29877288       2.23652956      -0.00971702       0.03180100      -0.05137613
Ca       2.09647974       3.74373194      -0.77982846      -0.05498848      -0.03024304       0.00725059
Ca      -0.00392065       3.68747094       2.32839677       0.00234061      -0.06100206      -0.00428252
Ca       2.50253136       0.05625291      -0.48440024       0.02296128       0.02933846       0.04746489
Ca       0.86145297       2.20216453       5.62908120      -0.05882415       0.02603228       0.00068573
Ca      -1.95647060       3.98625191       5.82156020       0.05238426      -0.03197644       0.00631834
Ca       1.03396332       6.18162608      -3.78509787      -0.03775086       0.00970367       0.05029998
Ca       5.79928351       1.84712257      -0.48439364       0.01682413      -0.04193070       0.04818655
Ca      -0.14002366       0.35503388       2.52087577      -0.00528516       0.06277193       0.00967883
Ca       3.26036811       1.84034029       2.23652296      -0.01876181      -0.02685480      -0.05396534
Ca       6.62435244       4.09875773      -2.52086917      -0.05238429       0.03197642      -0.00631834
Ca       3.80642887       5.88284511      -2.32839017       0.05882415      -0.02603228      -0.00068572
Ca       2.16535048       8.02875673       3.78509127      -0.02296133      -0.02933847      -0.04746488
Ca       4.67180249       4.39753870       0.97229426      -0.00234061       0.06100211       0.00428253
Ca       2.57140210       4.34127770       4.08051949       0.05498850       0.03024303      -0.00725055
Ca      -2.29754829       7.78623676       1.06416147       0.00971704      -0.03180101       0.05137620
Ca       5.55790188       2.13912126       4.36486570      -0.03321344       0.00913450       0.05267241
Ca       5.52542868       5.88962739       4.27299849      -0.05131348      -0.04047058       0.00398204
Ca       3.63391852       1.90338356       7.08578890       0.03775088      -0.00970364      -0.05030000
Ca      -1.13140167       6.23788707       3.78508467      -0.01682414       0.04193069      -0.04818660
Ca       4.80790550       7.72997576       0.77981526       0.00528515      -0.06277193      -0.00967877
Ca       1.40751373       6.24466935       1.06416807       0.01876182       0.02685477       0.05396533
N       -0.98191817       5.74323640       1.38864138       0.00566221      -0.00910113      -0.00659902
N       -3.13080658       6.06375723       5.21274068       0.01091087       0.00037600       0.00877048
N        7.18687629       0.32052083       4.68933241       0.00577982       0.00876584      -0.00660302
N        3.13080607       2.02125241       4.68933241      -0.01105216       0.00023204      -0.00830233
N        4.48282933       3.72198399      -1.38864138      -0.00524745      -0.00960517       0.00796257
N        3.31585858       6.38427806      -4.68933241      -0.00523414       0.00893599       0.00677645
N        5.64980001       2.34177324       1.91204965      -0.00566221       0.00910114       0.00659902
N        7.79868842       2.02125241      -1.91204965      -0.01091086      -0.00037602      -0.00877047
N       -2.51899445       7.76448881      -1.38864138      -0.00577983      -0.00876584       0.00660302
N        1.53707577       6.06375723      -1.38864138       0.01105217      -0.00023205       0.00830233
N        0.18505251       4.36302565       4.68933241       0.00524744       0.00960517      -0.00796257
N        1.35202326       1.70073158       7.99002344       0.00523415      -0.00893599      -0.00677645
N       -2.33394143       4.04250482      -1.65034551      -0.00000000      -0.00000000      -0.00000003
N        4.66788235       0.00000000      -1.65034551       0.00000000      -0.00000000      -0.00000002
N        0.00000000       0.00000000       4.95103655       0.00000000      -0.00000001      -0.00000003
N        2.33394092       4.04250482       1.65034552       0.00000000       0.00000000      -0.00000003
40
Lattice="9.458617797657459 -0.0 -3.3441261561494073 -4.729309415540024 8.191403546742789 -3.3441261561494073 -0.0 -0.0 10.032378468448222" Properties=species:S:1:pos:R:3:forces:R:3 energy=-469257.114704869 free_energy=-469257.114704869 pbc="T T T"
Ca      -0.86883165       2.22427217      -0.98510245      -0.02822139      -0.00400279      -0.02474568
Ca      -0.90173217       6.02413273      -1.07817857      -0.00896083      -0.02604969       0.02766466
Ca       7.05709104       0.30270455       2.26596096       0.02548518       0.00512129       0.02946230
Ca       2.12406816       3.79299722      -0.79009054       0.03337242      -0.00424814       0.01315900
Ca      -0.00397224       3.73599586       2.35903708       0.00334174       0.02955768      -0.02420662
Ca       2.53546318       0.05699316      -0.49077466       0.00913843      -0.03019690      -0.01956917
Ca       0.87278918       2.23114370       5.70315655       0.01792420      -0.01864807      -0.02245274
Ca      -1.98221659       4.03870861       5.89816846      -0.01702342       0.02824099       0.01402953
Ca       1.04756966       6.26297259      -3.83490750       0.02327591       0.02642597      -0.01629502
Ca       5.87559862       1.87142960      -0.49076797      -0.02839166       0.00470731      -0.01841408
Ca      -0.14186629       0.35970591       2.55404899      -0.02321442      -0.02601215       0.01708446
Ca       3.30327261       1.86455807       2.26595427      -0.01451086       0.01879444       0.02635833
Ca       6.71152497       4.15269494      -2.55404231       0.01702341      -0.02824097      -0.01402943
Ca       3.85651920       5.96025984      -2.35903040      -0.01792419       0.01864807       0.02245275
Ca       2.19384520       8.13441038       3.83490081      -0.00913842       0.03019695       0.01956925
Ca       4.73328063       4.45540769       0.98508907      -0.00334184      -0.02955772       0.02420662
Ca       2.60524022       4.39840633       4.13421669      -0.03337238       0.00424810      -0.01315897
Ca      -2.32778266       7.88869899       1.07816520      -0.02548518      -0.00512128      -0.02946231
Ca       5.63104056       2.16727082       4.42230473       0.00896074       0.02604965      -0.02766472
Ca       5.59814003       5.96713138       4.32922860       0.02822141       0.00400269       0.02474573
Ca       3.68173872       1.92843095       7.17903366      -0.02327588      -0.02642589       0.01629501
Ca      -1.14629024       6.31997394       3.83489413       0.02839168      -0.00470726       0.01841406
Ca       4.87117467       7.83169763       0.79007716       0.02321441       0.02601219      -0.01708440
Ca       1.42603577       6.32684548       1.07817189       0.01451091      -0.01879444      -0.02635839
N       -0.99483963       5.81881397       1.40691507       0.00524695      -0.00878021      -0.00673529
N       -3.17200613       6.14355266       5.28133724       0.01087555       0.00024851       0.00845816
N        7.28145130       0.32473869       4.75104123       0.00548661       0.00866969      -0.00654599
N        3.17200561       2.04785089       4.75104123      -0.01087399       0.00023605      -0.00815659
N        4.54182069       3.77096308      -1.40691507      -0.00542485      -0.00957543       0.00764212
N        3.35949330       6.46829135      -4.75104123      -0.00549934       0.00908821       0.00656785
N        5.72414801       2.37258958       1.93721108      -0.00524692       0.00878020       0.00673535
N        7.90131451       2.04785089      -1.93721108      -0.01087553      -0.00024855      -0.00845820
N       -2.55214292       7.86666485      -1.40691507      -0.00548662      -0.00866967       0.00654597
N        1.55730277       6.14355266      -1.40691507       0.01087401      -0.00023608       0.00815657
N        0.18748769       4.42044047       4.75104123       0.00542482       0.00957543      -0.00764215
N        1.36981508       1.72311219       8.09516738       0.00549935      -0.00908818      -0.00656783
N       -2.36465471       4.09570177      -1.67206307       0.00000001       0.00000002      -0.00000006
N        4.72930890       0.00000000      -1.67206307      -0.00000002      -0.00000002      -0.00000003
N        0.00000000       0.00000000       5.01618924      -0.00000001      -0.00000003      -0.00000004
N        2.36465419       4.09570177       1.67206308       0.00000000       0.00000002      -0.00000002
40
Lattice="9.578359848500035 -0.0 -3.3864613612269197 -4.789180447502657 8.295103207829534 -3.3864613612269197 -0.0 -0.0 10.15938408368076" Properties=species:S:1:pos:R:3:forces:R:3 energy=-469256.558325919 free_energy=-469256.558325919 pbc="T T T"
Ca      -0.87983068       2.25243050      -0.99757342      -0.09537503      -0.04366817      -0.04269034
Ca      -0.91314772       6.10039567      -1.09182785      -0.04409551      -0.04004582       0.09750336
Ca       7.14643079       0.30653666       2.29464705       0.05534801      -0.01780602       0.09831400
Ca       2.15095796       3.84101494      -0.80009275       0.10881550       0.01778642       0.01814237
Ca      -0.00402253       3.78329197       2.38890148       0.00450020       0.10635070      -0.04163578
Ca       2.56756106       0.05771467      -0.49698766      -0.00272596      -0.08211111      -0.07650976
Ca       0.88383831       2.25938903       5.77535607       0.08576000      -0.05691181      -0.04219537
Ca      -2.00731060       4.08983693       5.97283675      -0.07607083       0.08058204       0.02054994
Ca       1.06083144       6.34225914      -3.88345579       0.07622479       0.03977645      -0.07330072
Ca       5.94998119       1.89512110      -0.49698088      -0.06746668       0.04572826      -0.07472399
Ca      -0.14366225       0.36425964       2.58638216      -0.03969737      -0.10350298       0.02257405
Ca       3.34509063       1.88816258       2.29464028      -0.01153258       0.05831446       0.09655254
Ca       6.79649000       4.20526628      -2.58637539       0.07607084      -0.08058207      -0.02054991
Ca       3.90534109       6.03571418      -2.38889471      -0.08575998       0.05691181       0.04219535
Ca       2.22161834       8.23738853       3.88344902       0.00272598       0.08211118       0.07650979
Ca       4.79320193       4.51181124       0.99755988      -0.00450023      -0.10635071       0.04163577
Ca       2.63822144       4.45408827       4.18655411      -0.10881551      -0.01778649      -0.01814235
Ca      -2.35725139       7.98856654       1.09181431      -0.05534801       0.01780610      -0.09831397
Ca       5.70232712       2.19470754       4.47828921       0.04409554       0.04004579      -0.09750336
Ca       5.66901008       6.04267270       4.38403478       0.09537501       0.04366820       0.04269036
Ca       3.72834796       1.95284406       7.26991715      -0.07622473      -0.03977643       0.07330076
Ca      -1.16080179       6.39998211       3.88344225       0.06746666      -0.04572827       0.07472390
Ca       4.93284166       7.93084357       0.80007920       0.03969731       0.10350300      -0.02257407
Ca       1.44408877       6.40694063       1.09182108       0.01153255      -0.05831448      -0.09655253
N       -1.00743387       5.89247766       1.42472602       0.00486547      -0.00817332      -0.00658329
N       -3.21216237       6.22132741       5.34819671       0.01011986       0.00006808       0.00755786
N        7.37363135       0.32884975       4.81118738       0.00494919       0.00822892      -0.00630188
N        3.21216184       2.07377580       4.81118738      -0.01032346      -0.00009793      -0.00727308
N        4.59931820       3.81870186      -1.42472602      -0.00525962      -0.00913418       0.00717897
N        3.40202305       6.55017715      -4.81118738      -0.00528707       0.00899563       0.00612841
N        5.79661327       2.40262555       1.96173535      -0.00486546       0.00817333       0.00658324
N        8.00134177       2.07377580      -1.96173535      -0.01011985      -0.00006810      -0.00755783
N       -2.58445195       7.96625346      -1.42472602      -0.00494919      -0.00822897       0.00630189
N        1.57701756       6.22132741      -1.42472602       0.01032346       0.00009790       0.00727309
N        0.18986120       4.47640135       4.81118738       0.00525962       0.00913418      -0.00717894
N        1.38715635       1.74492606       8.19764874       0.00528709      -0.00899563      -0.00612839
N       -2.39459022       4.14755160      -1.69323068      -0.00000001       0.00000003      -0.00000000
N        4.78917992       0.00000000      -1.69323068       0.00000002      -0.00000001       0.00000001
N        0.00000000       0.00000000       5.07969205       0.00000001      -0.00000001      -0.00000004
N        2.39458970       4.14755160       1.69323069       0.00000000       0.00000003      -0.00000005
40
Lattice="9.69518062820395 -0.0 -3.4277637410615696 -4.8475908437363735 8.396272973821866 -3.4277637410615696 -0.0 -0.0 10.28329122318471" Properties=species:S:1:pos:R:3:forces:R:3 energy=-469255.63496424 free_energy=-469255.63496424 pbc="T T T"
Ca      -0.89056138       2.27990188      -1.00974015      -0.15208136      -0.07777728      -0.05837347
Ca      -0.92428476       6.17479807      -1.10514414      -0.07445474      -0.05201735       0.15770928
Ca       7.23359097       0.31027528       2.32263331       0.08114244      -0.03837197       0.15687571
Ca       2.17719174       3.88786120      -0.80985094       0.17317433       0.03755609       0.02381124
Ca      -0.00407159       3.82943422       2.41803730       0.00595113       0.17175779      -0.05704022
Ca       2.59887587       0.05841858      -0.50304908      -0.01415492      -0.12850377      -0.12557013
Ca       0.89461789       2.28694527       5.84579419       0.14437468      -0.09013414      -0.05828327
Ca      -2.03179241       4.13971791       6.04568340      -0.12631801       0.12660264       0.02623914
Ca       1.07376969       6.41961139      -3.93081967       0.12250921       0.05117483      -0.12293367
Ca       6.02254908       1.91823461      -0.50304222      -0.10143678       0.08077851      -0.12320996
Ca      -0.14541441       0.36870227       2.61792651      -0.05497424      -0.17084794       0.02739683
Ca       3.38588844       1.91119122       2.32262646      -0.00847450       0.09298854       0.15739536
Ca       6.87938219       4.25655507      -2.61791966       0.12631803      -0.12660265      -0.02623914
Ca       3.95297189       6.10932771      -2.41803044      -0.14437466       0.09013412       0.05828316
Ca       2.24871392       8.33785439       3.93081282       0.01415490       0.12850377       0.12557011
Ca       4.85166137       4.56683875       1.00972644      -0.00595113      -0.17175774       0.05704026
Ca       2.67039805       4.50841177       4.23761468      -0.17317432      -0.03755607      -0.02381125
Ca      -2.38600119       8.08599769       1.10513043      -0.08114242       0.03837201      -0.15687569
Ca       5.77187455       2.22147491       4.53290788       0.07445473       0.05201729      -0.15770925
Ca       5.73815117       6.11637110       4.43750389       0.15208132       0.07777725       0.05837347
Ca       3.77382010       1.97666158       7.35858341      -0.12250920      -0.05117484       0.12293365
Ca      -1.17495930       6.47803836       3.93080596       0.10143681      -0.08077854       0.12320996
Ca       4.99300419       8.02757071       0.80983723       0.05497424       0.17084792      -0.02739681
Ca       1.46170135       6.48508175       1.10513729       0.00847448      -0.09298852      -0.15739537
N       -1.01972086       5.96434423       1.44210244       0.00494676      -0.00792739      -0.00653504
N       -3.25133894       6.29720473       5.41342505       0.00929550      -0.00018346       0.00693569
N        7.46356255       0.33286050       4.86986618       0.00456831       0.00792881      -0.00601959
N        3.25133841       2.09906824       4.86986618      -0.00993975      -0.00028802      -0.00646950
N        4.65541297       3.86527598      -1.44210244      -0.00504567      -0.00873919       0.00686885
N        3.44351522       6.63006523      -4.86986618      -0.00490871       0.00882617       0.00583317
N        5.86731065       2.43192875       1.98566131      -0.00494680       0.00792736       0.00653502
N        8.09892872       2.09906824      -1.98566131      -0.00929550       0.00018347      -0.00693568
N       -2.61597276       8.06341247      -1.44210244      -0.00456834      -0.00792878       0.00601961
N        1.59625137       6.29720473      -1.44210244       0.00993978       0.00028803       0.00646951
N        0.19217681       4.53099699       4.86986618       0.00504567       0.00873920      -0.00686883
N        1.40407456       1.76620774       8.29762992       0.00490873      -0.00882612      -0.00583314
N       -2.42379542       4.19813649      -1.71388187      -0.00000001      -0.00000000       0.00000001
N        4.84759031       0.00000000      -1.71388187       0.00000002       0.00000000       0.00000001
N        0.00000000       0.00000000       5.14164562      -0.00000002      -0.00000001      -0.00000004
N        2.42379489       4.19813649       1.71388188       0.00000002      -0.00000001      -0.00000004
40
Lattice="9.809252041673467 -0.0 -3.4680940732108207 -4.904626556702696 8.495061718738441 -3.4680940732108207 -0.0 -0.0 10.404282219632464" Properties=species:S:1:pos:R:3:forces:R:3 energy=-469254.409588472 free_energy=-469254.409588471 pbc="T T T"
Ca      -0.90103954       2.30672671      -1.02162054      -0.20051965      -0.10629088      -0.07253231
Ca      -0.93515970       6.24744942      -1.11814703      -0.10128145      -0.06255648       0.20882126
Ca       7.31869985       0.31392592       2.34996091       0.10375738      -0.05626871       0.20621668
Ca       2.20280811       3.93360494      -0.81937947       0.22786267       0.05525170       0.03061873
Ca      -0.00411950       3.87449052       2.44648741       0.00763436       0.22782090      -0.07097568
Ca       2.62945368       0.05910592      -0.50896785      -0.02474597      -0.16952888      -0.16744912
Ca       0.90514378       2.31385297       5.91457455       0.19358932      -0.11961256      -0.07157132
Ca      -2.05569804       4.18842494       6.11681561      -0.16877080       0.16701446       0.03147870
Ca       1.08640343       6.49514316      -3.97706885       0.16234433       0.06207334      -0.16563473
Ca       6.09340910       1.94080415      -0.50896091      -0.13114217       0.10965498      -0.16522490
Ca      -0.14712532       0.37304034       2.64872847      -0.06808699      -0.22789537       0.03236498
Ca       3.42572607       1.93367789       2.34995398      -0.00467288       0.12297747       0.20839620
Ca       6.96032353       4.30663678      -2.64872154       0.16877077      -0.16701449      -0.03147870
Ca       3.99948171       6.18120875      -2.44648047      -0.19358932       0.11961260       0.07157130
Ca       2.27517180       8.43595580       3.97706192       0.02474597       0.16952886       0.16744915
Ca       4.90874498       4.62057120       1.02160667      -0.00763434      -0.22782084       0.07097568
Ca       2.70181738       4.56145678       4.28747354      -0.22786271      -0.05525167      -0.03061869
Ca      -2.41407437       8.18113580       1.11813316      -0.10375737       0.05626870      -0.20621665
Ca       5.83978518       2.24761230       4.58624110       0.10128144       0.06255652      -0.20882122
Ca       5.80566502       6.18833501       4.48971461       0.20051966       0.10629092       0.07253233
Ca       3.81822205       1.99991856       7.44516293      -0.16234427      -0.06207336       0.16563469
Ca      -1.18878362       6.55425757       3.97705498       0.13114219      -0.10965499       0.16522491
Ca       5.05175081       8.12202138       0.81936560       0.06808693       0.22789535      -0.03236501
Ca       1.47889941       6.56138383       1.11814009       0.00467288      -0.12297750      -0.20839617
N       -1.03171868       6.03451942       1.45906990       0.00497641      -0.00761629      -0.00619638
N       -3.28959350       6.37129629       5.47711824       0.00840708      -0.00030328       0.00645440
N        7.55137722       0.33677687       4.92716398       0.00430921       0.00756262      -0.00554946
N        3.28959296       2.12376543       4.92716398      -0.00939980      -0.00047926      -0.00575648
N        4.71018756       3.91075399      -1.45906990      -0.00445264      -0.00819654       0.00653937
N        3.48403088       6.70807316      -4.92716398      -0.00430444       0.00839528       0.00549956
N        5.93634416       2.46054230       2.00902417      -0.00497641       0.00761628       0.00619641
N        8.19421898       2.12376543      -2.00902417      -0.00840706       0.00030327      -0.00645438
N       -2.64675174       8.15828485      -1.45906990      -0.00430923      -0.00756263       0.00554943
N        1.61503252       6.37129629      -1.45906990       0.00939981       0.00047926       0.00575645
N        0.19443792       4.58430773       4.92716398       0.00445263       0.00819653      -0.00653939
N        1.42059460       1.78698856       8.39525805       0.00430448      -0.00839529      -0.00549953
N       -2.45231328       4.24753086      -1.73404703      -0.00000000      -0.00000000      -0.00000003
N        4.90462602       0.00000000      -1.73404703      -0.00000002      -0.00000000      -0.00000001
N        0.00000000       0.00000000       5.20214112      -0.00000000      -0.00000001      -0.00000004
N        2.45231274       4.24753086       1.73404704       0.00000000      -0.00000001      -0.00000000
40
Lattice="9.92073035832753 -0.0 -3.507507607253679 -4.960365721119635 8.59160477587002 -3.507507607253679 -0.0 -0.0 10.522522821761036" Properties=species:S:1:pos:R:3:forces:R:3 energy=-469252.936958783 free_energy=-469252.936958761 pbc="T T T"
Ca      -0.91127950       2.33294176      -1.03323085      -0.24157794      -0.13055570      -0.08467300
Ca      -0.94578742       6.31844924      -1.13085433      -0.12409094      -0.07132591       0.25243111
Ca       7.40187402       0.31749356       2.37666730       0.12293639      -0.07074988       0.24820079
Ca       2.22784216       3.97830883      -0.82869140       0.27448003       0.07087417       0.03652958
Ca      -0.00416631       3.91852259       2.47429078       0.00835935       0.27598798      -0.08340385
Ca       2.65933639       0.05977764      -0.51475207      -0.03459820      -0.20493301      -0.20226640
Ca       0.91543038       2.34014901       5.98179137       0.23528463      -0.14474573      -0.08268494
Ca      -2.07906025       4.23602475       6.18633083      -0.20431708       0.20194760       0.03519533
Ca       1.09874998       6.56895793      -4.02226669       0.19629640       0.07197420      -0.20123056
Ca       6.16265832       1.96286063      -0.51474505      -0.15686259       0.13378583      -0.20099013
Ca      -0.14879734       0.37727979       2.67883024      -0.07821984      -0.27527470       0.03627843
Ca       3.46465811       1.95565338       2.37666029      -0.00014654       0.14713160       0.25089143
Ca       7.03942489       4.35558002      -2.67882323       0.20431708      -0.20194759      -0.03519531
Ca       4.04493426       6.25145577      -2.47428377      -0.23528465       0.14474563       0.08268501
Ca       2.30102824       8.53182714       4.02225967       0.03459823       0.20493302       0.20226644
Ca       4.96453095       4.67308218       1.03321683      -0.00835933      -0.27598794       0.08340386
Ca       2.73252248       4.61329595       4.33619900      -0.27448005      -0.07087416      -0.03652958
Ca      -2.44150938       8.27411121       1.13084031      -0.12293638       0.07074993      -0.24820077
Ca       5.90615206       2.27315554       4.63836194       0.12409097       0.07132591      -0.25243109
Ca       5.87164414       6.25866302       4.54073846       0.24157796       0.13055569       0.08467295
Ca       3.86161465       2.02264685       7.52977429      -0.19629637      -0.07197423       0.20123061
Ca      -1.20229368       6.62874415       4.02225266       0.15686255      -0.13378586       0.20099008
Ca       5.10916198       8.21432498       0.82867737       0.07821980       0.27527474      -0.03627847
Ca       1.49570653       6.63595140       1.13084732       0.00014655      -0.14713166      -0.25089142
N       -1.04344376       6.10309938       1.47565166       0.00512661      -0.00765020      -0.00607339
N       -3.32697844       6.44370358       5.53936355       0.00823694      -0.00023177       0.00640698
N        7.63719568       0.34060421       4.98315927       0.00446596       0.00748245      -0.00561584
N        3.32697790       2.14790119       4.98315927      -0.00935576      -0.00060815      -0.00574870
N        4.76371700       3.95519818      -1.47565166      -0.00408501      -0.00812983       0.00664505
N        3.52362553       6.78430779      -4.98315927      -0.00413823       0.00823079       0.00566779
N        6.00380839       2.48850540       2.03185595      -0.00512658       0.00765020       0.00607338
N        8.28734308       2.14790119      -2.03185595      -0.00823694       0.00023180      -0.00640696
N       -2.67683104       8.25100057      -1.47565166      -0.00446599      -0.00748246       0.00561583
N        1.63338674       6.44370358      -1.47565166       0.00935575       0.00060818       0.00574870
N        0.19664764       4.63640659       4.98315927       0.00408499       0.00812985      -0.00664507
N        1.43673910       1.80729699       8.49066688       0.00413827      -0.00823079      -0.00566779
N       -2.48018286       4.29580239      -1.75375380      -0.00000001       0.00000000      -0.00000001
N        4.96036518       0.00000000      -1.75375380      -0.00000002      -0.00000000      -0.00000002
N        0.00000000       0.00000000       5.26126142      -0.00000001      -0.00000000      -0.00000004
N        2.48018232       4.29580239       1.75375381      -0.00000001       0.00000000      -0.00000001
2
Lattice="2.5643648821483835 0.0 1.4805368084528916 0.8547886127718943 2.417705416692355 1.4805368084528916 0.0 0.0 2.961073616905783" Properties=species:S:1:pos:R:3:forces:R:3 energy=-22342.1756116846 free_energy=-22342.1753683626 pbc="T T T"
Sc       0.00000000       0.00000000       0.00000000       0.00000000      -0.00000000       0.00000000
N        1.70957675       1.20885271       2.96107362      -0.00000000       0.00000000      -0.00000000
2
Lattice="2.606411123759568 0.0 1.5048122182418096 0.8688040318681759 2.457346977377647 1.5048122182418096 0.0 0.0 3.009624436483619" Properties=species:S:1:pos:R:3:forces:R:3 energy=-22342.5178792687 free_energy=-22342.5175978458 pbc="T T T"
Sc       0.00000000       0.00000000       0.00000000       0.00000001       0.00000001       0.00000001
N        1.73760758       1.22867349       3.00962444      -0.00000001      -0.00000001      -0.00000001
2
Lattice="2.6471428766163867 0.0 1.5283287075671523 0.882381287882959 2.4957492266826686 1.5283287075671523 0.0 0.0 3.0566574151343047" Properties=species:S:1:pos:R:3:forces:R:3 energy=-22342.7542517555 free_energy=-22342.7540380262 pbc="T T T"
Sc       0.00000000       0.00000000       0.00000000       0.00000000       0.00000000      -0.00000000
N        1.76476209       1.24787462       3.05665742      -0.00000000      -0.00000000       0.00000000
2
Lattice="2.686658297547104 0.0 1.5511429473021867 0.8955530997711982 2.533004707715085 1.5511429473021867 0.0 0.0 3.1022858946043734" Properties=species:S:1:pos:R:3:forces:R:3 energy=-22342.9046554808 free_energy=-22342.904518597 pbc="T T T"
Sc       0.00000000       0.00000000       0.00000000       0.00000001      -0.00000001       0.00000001
N        1.79110570       1.26650236       3.10228589      -0.00000001       0.00000001      -0.00000001
2
Lattice="2.725044316525936 0.0 1.5733051264927393 0.9083484442017703 2.5691953788073465 1.5733051264927393 0.0 0.0 3.1466102529854787" Properties=species:S:1:pos:R:3:forces:R:3 energy=-22342.9854458579 free_energy=-22342.9853269712 pbc="T T T"
Sc       0.00000000       0.00000000       0.00000000      -0.00000004       0.00000001      -0.00000001
N        1.81669639       1.28459769       3.14661025       0.00000004      -0.00000001       0.00000001
2
Lattice="2.76237833 0.0 1.59485993 0.92079312 2.60439421 1.59485993 0.0 0.0 3.18971986" Properties=species:S:1:pos:R:3:forces:R:3 energy=-22343.0101914973 free_energy=-22343.0100712717 pbc="T T T"
Sc       0.00000000       0.00000000       0.00000000      -0.00000002      -0.00000002       0.00000410
N        1.84158573       1.30219711       3.18971986       0.00000002       0.00000002      -0.00000410
2
Lattice="2.7987295819485776 0.0 1.61584733585549 0.9329102085009211 2.638666485116322 1.61584733585549 0.0 0.0 3.23169467171098" Properties=species:S:1:pos:R:3:forces:R:3 energy=-22342.9893792118 free_energy=-22342.9892257629 pbc="T T T"
Sc       0.00000000       0.00000000       0.00000000      -0.00000002      -0.00000002      -0.00000001
N        1.86581990       1.31933325       3.23169467       0.00000002       0.00000002       0.00000001
2
Lattice="2.8341602999525666 0.0 1.6363032711710885 0.9447204522392338 2.6720708728584355 1.6363032711710885 0.0 0.0 3.272606542342177" Properties=species:S:1:pos:R:3:forces:R:3 energy=-22342.9315414726 free_energy=-22342.9314233967 pbc="T T T"
Sc       0.00000000       0.00000000       0.00000000       0.00000000      -0.00000001      -0.00000001
N        1.88944038       1.33603544       3.27260654      -0.00000000       0.00000001       0.00000001
2
Lattice="2.868726637121261 0.0 1.6562601559607333 0.9562425689250154 2.704660314864034 1.6562601559607333 0.0 0.0 3.3125203119214666" Properties=species:S:1:pos:R:3:forces:R:3 energy=-22342.8431990103 free_energy=-22342.8431144118 pbc="T T T"
Sc       0.00000000       0.00000000       0.00000000      -0.00000003       0.00000000      -0.00000000
N        1.91248461       1.35233016       3.31252031       0.00000003      -0.00000000       0.00000000
2
Lattice="2.9024794587450393 0.0 1.6757473573145756 0.9674935136613803 2.7364827673693464 1.6757473573145756 0.0 0.0 3.351494714629151" Properties=species:S:1:pos:R:3:forces:R:3 energy=-22342.7299051444 free_energy=-22342.7298462754 pbc="T T T"
Sc       0.00000000       0.00000000       0.00000000      -0.00000001      -0.00000004       0.00000001
N        1.93498649       1.36824139       3.35149471       0.00000001       0.00000004      -0.00000001
2
Lattice="2.935465003698851 0.0 1.6947915712604793 0.9784886994123924 2.767581824786077 1.6947915712604793 0.0 0.0 3.3895831425209586" Properties=species:S:1:pos:R:3:forces:R:3 energy=-22342.5963836111 free_energy=-22342.596342758 pbc="T T T"
Sc       0.00000000       0.00000000       0.00000000      -0.00000005      -0.00000004       0.00000001
N        1.95697686       1.38379092       3.38958314       0.00000005       0.00000004      -0.00000001
2
Lattice="2.4110484592703654 0.0 1.3920201405388701 0.8036828259455736 2.2731573728640266 1.3920201405388701 9.283177667225559e-09 9.283177667225559e-09 2.7840383965926745" Properties=species:S:1:pos:R:3:forces:R:3 energy=-24791.1863529595 free_energy=-24791.1845495446 pbc="T T T"
Ti       0.00000000       0.00000000       0.00000000       0.00000007      -0.00000003       0.00000002
N        1.60736565       1.13657869       2.78403934      -0.00000007       0.00000003      -0.00000002
2
Lattice="2.4505808701064646 0.0 1.4148441994566079 0.816860296325747 2.31042887224582 1.4148441994566079 9.435387960633068e-09 9.435387960633068e-09 2.82968648352946" Properties=species:S:1:pos:R:3:forces:R:3 energy=-24791.6003130879 free_energy=-24791.5984400613 pbc="T T T"
Ti       0.00000000       0.00000000       0.00000000       0.00000004      -0.00000002       0.00000020
N        1.63372059       1.15521444       2.82968745      -0.00000004       0.00000002      -0.00000020
2
Lattice="2.4888773819065086 0.0 1.4369547113930534 0.8296258003573961 2.3465351553105696 1.4369547113930534 9.582839714125569e-09 9.582839714125569e-09 2.873907477469645" Properties=species:S:1:pos:R:3:forces:R:3 energy=-24791.8875261207 free_energy=-24791.8855860311 pbc="T T T"
Ti       0.00000000       0.00000000       0.00000000       0.00000006      -0.00000004       0.00000000
N        1.65925160       1.17326758       2.87390845      -0.00000006       0.00000004      -0.00000000
2
Lattice="2.526030282968158 0.0 1.4584049590471027 0.8420101008066447 2.3815632322647473 1.4584049590471027 9.72588826218856e-09 9.72588826218856e-09 2.9168079437388883" Properties=species:S:1:pos:R:3:forces:R:3 energy=-24792.0724544188 free_energy=-24792.0704419513 pbc="T T T"
Ti       0.00000000       0.00000000       0.00000000       0.00000006      -0.00000001       0.00000017
N        1.68402020       1.19078162       2.91680894      -0.00000006       0.00000001      -0.00000017
2
Lattice="2.5621213059581853 0.0 1.479242130818413 0.8540404418959607 2.4155901613745896 1.479242130818413 9.864848297321881e-09 9.864848297321881e-09 2.958482259072622" Properties=species:S:1:pos:R:3:forces:R:3 energy=-24792.1747369634 free_energy=-24792.1726444855 pbc="T T T"
Ti       0.00000000       0.00000000       0.00000000       0.00000001       0.00000007       0.00000015
N        1.70808088       1.20779509       2.95848327      -0.00000001      -0.00000007      -0.00000015
2
Lattice="2.59722322 0.0 1.49950824 0.86574108 2.44868455 1.49950824 1e-08 1e-08 2.99901445" Properties=species:S:1:pos:R:3:forces:R:3 energy=-24792.2096131088 free_energy=-24792.2074815929 pbc="T T T"
Ti       0.00000000       0.00000000       0.00000000      -0.00000043       0.00000000       0.00000006
N        1.73148216       1.22434228       2.99901547       0.00000043      -0.00000000      -0.00000006
2
Lattice="2.6314011291631214 0.0 1.5192408744618435 0.8771337164754366 2.4809077788216793 1.5192408744618435 1.0131594038201774e-08 1.0131594038201774e-08 3.0384796922100974" Properties=species:S:1:pos:R:3:forces:R:3 energy=-24792.1904661891 free_energy=-24792.1882602313 pbc="T T T"
Ti       0.00000000       0.00000000       0.00000000       0.00000002      -0.00000005       0.00000011
N        1.75426743       1.24045389       3.03848073      -0.00000002       0.00000005      -0.00000011
2
Lattice="2.66471354061012 0.0 1.538473813346105 0.8882378537099438 2.512315008899311 1.538473813346105 1.0259855680060184e-08 1.0259855680060184e-08 3.076945543941507" Properties=species:S:1:pos:R:3:forces:R:3 energy=-24792.1270147722 free_energy=-24792.1247283983 pbc="T T T"
Ti       0.00000000       0.00000000       0.00000000       0.00000007       0.00000000       0.00000005
N        1.77647571       1.25615751       3.07694659      -0.00000007      -0.00000000      -0.00000005
2
Lattice="2.697213250208147 0.0 1.5572375383754262 0.8990710903260412 2.5429560166337852 1.5572375383754262 1.038498820370221e-08 1.038498820370221e-08 3.1144729685982475" Properties=species:S:1:pos:R:3:forces:R:3 energy=-24792.0278707325 free_energy=-24792.0254957122 pbc="T T T"
Ti       0.00000000       0.00000000       0.00000000       0.00000003      -0.00000004       0.00000006
N        1.79814218       1.27147801       3.11447403      -0.00000003       0.00000004      -0.00000006
2
Lattice="2.7289480821497927 0.0 1.575559660873435 0.9096493677213815 2.5728758910881475 1.575559660873435 1.0507175744985805e-08 1.0507175744985805e-08 3.1511171887901943" Properties=species:S:1:pos:R:3:forces:R:3 energy=-24791.9000685517 free_energy=-24791.8975947058 pbc="T T T"
Ti       0.00000000       0.00000000       0.00000000       0.00000007      -0.00000001       0.00000004
N        1.81929874       1.28643795       3.15111826      -0.00000007       0.00000001      -0.00000004
2
Lattice="2.759961510813054 0.0 1.5934652807959353 0.9199871773554086 2.6021156202825657 1.5934652807959353 1.0626585691826112e-08 1.0626585691826112e-08 3.1869284043949757" Properties=species:S:1:pos:R:3:forces:R:3 energy=-24791.749253991 free_energy=-24791.7466699006 pbc="T T T"
Ti       0.00000000       0.00000000       0.00000000       0.00000001       0.00000005       0.00000005
N        1.83997435       1.30105782       3.18692949      -0.00000001      -0.00000005      -0.00000005
2
Lattice="2.386630917052262 9.283177667225559e-09 1.3779234867203456 0.7955439577398539 2.2501382763792472 1.3779234867203456 9.283177667225559e-09 9.283177667225559e-09 2.755844160637858" Properties=species:S:1:pos:R:3:forces:R:3 energy=-36256.6825023522 free_energy=-36256.679792588 pbc="T T T"
Fe       0.00000000       0.00000000       0.00000000      -0.00371999       0.00239044       0.00002384
N        0.79554372       0.56253457       1.37792278       0.00371999      -0.00239044      -0.00002384
2
Lattice="2.425762969153612 9.435387960633068e-09 1.4005164118721793 0.8085879803328572 2.2870323464415203 1.4005164118721793 9.435387960633068e-09 9.435387960633068e-09 2.801029964821806" Properties=species:S:1:pos:R:3:forces:R:3 energy=-36257.1211979248 free_energy=-36257.1183371238 pbc="T T T"
Fe       0.00000000       0.00000000       0.00000000      -0.00253886       0.00004155       0.00002022
N        0.80858774       0.57175809       1.40051569       0.00253886      -0.00004155      -0.00002022
2
Lattice="2.4636716386064443 9.582839714125569e-09 1.4224030159617183 0.8212242085463116 2.32277299973356 1.4224030159617183 9.582839714125569e-09 9.582839714125569e-09 2.844803128323003" Properties=species:S:1:pos:R:3:forces:R:3 energy=-36257.4315508956 free_energy=-36257.4285492519 pbc="T T T"
Fe       0.00000000       0.00000000       0.00000000      -0.00029593      -0.00161343       0.00001724
N        0.82122396       0.58069325       1.42240229       0.00029593       0.00161343      -0.00001724
2
Lattice="2.500448279072123 9.72588826218856e-09 1.4436360421067571 0.8334830936128713 2.357446365354194 1.4436360421067571 9.72588826218856e-09 9.72588826218856e-09 2.8872691372693704" Properties=species:S:1:pos:R:3:forces:R:3 energy=-36257.6386294378 free_energy=-36257.6354953781 pbc="T T T"
Fe       0.00000000       0.00000000       0.00000000       0.00086430      -0.00152176       0.00001415
N        0.83348284       0.58936160       1.44363530      -0.00086430       0.00152176      -0.00001415
2
Lattice="2.53617379548174 9.864848297321881e-09 1.464262200841357 0.8453916038537047 2.3911287212401975 1.464262200841357 9.864848297321881e-09 9.864848297321881e-09 2.9285214126336796" Properties=species:S:1:pos:R:3:forces:R:3 energy=-36257.7621760642 free_energy=-36257.7589158375 pbc="T T T"
Fe       0.00000000       0.00000000       0.00000000       0.00083461      -0.00078675       0.00001136
N        0.84539135       0.59778219       1.46426145      -0.00083461       0.00078675      -0.00001136
2
Lattice="2.57092022 1e-08 1.48432308 0.85697375 2.42388798 1.48432308 1e-08 1e-08 2.96864313" Properties=species:S:1:pos:R:3:forces:R:3 energy=-36257.8189122366 free_energy=-36257.816032951 pbc="T T T"
Fe       0.00000000       0.00000000       0.00000000      -0.00004377       0.00012693       0.00000898
N        0.85697349       0.60597200       1.48432232       0.00004377      -0.00012693      -0.00000898
2
Lattice="2.6047519973644393 1.0131594038201774e-08 1.5038558868093295 0.8682510136395417 2.4557849007436943 1.5038558868093295 1.0131594038201774e-08 1.0131594038201774e-08 3.0077087037456653" Properties=species:S:1:pos:R:3:forces:R:3 energy=-36257.8197059406 free_energy=-36257.8166630059 pbc="T T T"
Fe       0.00000000       0.00000000       0.00000000      -0.00122356       0.00116251       0.00000714
N        0.86825075       0.61394623       1.50385512       0.00122356      -0.00116251      -0.00000714
2
Lattice="2.6377270422148578 1.0259855680060184e-08 1.5228940583382427 0.8792426996599976 2.4868740859432603 1.5228940583382427 1.0259855680060184e-08 1.0259855680060184e-08 3.0457850079402142" Properties=species:S:1:pos:R:3:forces:R:3 energy=-36257.7759955517 free_energy=-36257.7727898033 pbc="T T T"
Fe       0.00000000       0.00000000       0.00000000      -0.00208102       0.00188283       0.00000541
N        0.87924243       0.62171853       1.52289328       0.00208102      -0.00188283      -0.00000541
2
Lattice="2.669897615735949 1.038498820370221e-08 1.5414677676282933 0.8899662284632447 2.517204807939558 1.5414677676282933 1.038498820370221e-08 1.038498820370221e-08 3.0829323886051605" Properties=species:S:1:pos:R:3:forces:R:3 energy=-36257.6964553786 free_energy=-36257.6930877528 pbc="T T T"
Fe       0.00000000       0.00000000       0.00000000      -0.00247494       0.00183886       0.00000406
N        0.88996596       0.62930121       1.54146698       0.00247494      -0.00183886      -0.00000406
2
Lattice="2.701311057787757 1.0507175744985805e-08 1.5596043463898623 0.9004373800089528 2.5468216992018635 1.5596043463898623 1.0507175744985805e-08 1.0507175744985805e-08 3.119205509105474" Properties=species:S:1:pos:R:3:forces:R:3 energy=-36257.5881479102 free_energy=-36257.5846189726 pbc="T T T"
Fe       0.00000000       0.00000000       0.00000000      -0.00212126       0.00079658       0.00000015
N        0.90043711       0.63670543       1.55960355       0.00212126      -0.00079658      -0.00000015
2
Lattice="2.7320104024678438 1.0626585691826112e-08 1.5773286403975264 0.9106704990020567 2.5757653326857297 1.5773286403975264 1.0626585691826112e-08 1.0626585691826112e-08 3.154654060939588" Properties=species:S:1:pos:R:3:forces:R:3 energy=-36257.4568589758 free_energy=-36257.4531683942 pbc="T T T"
Fe       0.00000000       0.00000000       0.00000000      -0.00093868      -0.00048783       0.00000180
N        0.91067022       0.64394134       1.57732783       0.00093868       0.00048783      -0.00000180
2
Lattice="2.3990417365232406 0.0 1.385086637254174 0.799681200813984 2.261837707379231 1.385086637254174 -9.283177667225559e-09 -0.0 2.770175158993414" Properties=species:S:1:pos:R:3:forces:R:3 energy=-39562.96185793 free_energy=-39562.9597632389 pbc="T T T"
Co       0.00000000       0.00000000       0.00000000      -0.00330039       0.00174454      -0.00001435
N        0.79968073       0.56545942       1.38508711       0.00330039      -0.00174454       0.00001435
2
Lattice="2.4383772808490014 0.0 1.4077970119780787 0.8127930591206605 2.298923605486711 1.4077970119780787 -9.435387960633068e-09 -0.0 2.8155959393399135" Properties=species:S:1:pos:R:3:forces:R:3 energy=-39563.3799156502 free_energy=-39563.3776584562 pbc="T T T"
Co       0.00000000       0.00000000       0.00000000      -0.00119554      -0.00093106      -0.00001216
N        0.81279258       0.57473090       1.40779749       0.00119554       0.00093106       0.00001216
2
Lattice="2.4764830807628546 0.0 1.4297973938218098 0.8254950023045456 2.3348500897169973 1.4297973938218098 -9.582839714125569e-09 -0.0 2.8595967329600818" Properties=species:S:1:pos:R:3:forces:R:3 energy=-39563.6756798367 free_energy=-39563.6732272187 pbc="T T T"
Co       0.00000000       0.00000000       0.00000000       0.00060642      -0.00183257      -0.00001002
N        0.82549451       0.58371252       1.42979788      -0.00060642       0.00183257       0.00001002
2
Lattice="2.513450964978167 0.0 1.4511408000888448 0.8378176399605692 2.3697037369909295 1.4511408000888448 -9.72588826218856e-09 -0.0 2.902283574533007" Properties=species:S:1:pos:R:3:forces:R:3 energy=-39563.8730982955 free_energy=-39563.8704124558 pbc="T T T"
Co       0.00000000       0.00000000       0.00000000       0.00108768      -0.00128279      -0.00000788
N        0.83781714       0.59242593       1.45114130      -0.00108768       0.00128279       0.00000788
2
Lattice="2.5493622591431535 0.0 1.4718741841384746 0.8497880806592205 2.403561221846891 1.4718741841384746 -9.864848297321881e-09 -0.0 2.9437503708411534" Properties=species:S:1:pos:R:3:forces:R:3 energy=-39563.9911288201 free_energy=-39563.9881810024 pbc="T T T"
Co       0.00000000       0.00000000       0.00000000       0.00047257      -0.00038984      -0.00000608
N        0.84978758       0.60089030       1.47187469      -0.00047257       0.00038984       0.00000608
2
Lattice="2.58428937 0.0 1.49203935 0.86143046 2.43649081 1.49203935 -1e-08 -0.0 2.98408073" Properties=species:S:1:pos:R:3:forces:R:3 energy=-39564.0408973389 free_energy=-39564.0368043334 pbc="T T T"
Co       0.00000000       0.00000000       0.00000000      -0.00078033       0.00063813      -0.00000520
N        0.86142995       0.60912270       1.49203986       0.00078033      -0.00063813       0.00000520
2
Lattice="2.618297077408022 0.0 1.511673698322245 0.8727663712861412 2.4685535764729414 1.511673698322245 -1.0131594038201774e-08 -0.0 3.02334945335808" Properties=species:S:1:pos:R:3:forces:R:3 energy=-39564.0441965275 free_energy=-39564.0399881987 pbc="T T T"
Co       0.00000000       0.00000000       0.00000000      -0.00191374       0.00164704      -0.00000384
N        0.87276585       0.61713839       1.51167422       0.00191374      -0.00164704       0.00000384
2
Lattice="2.6514435971713652 0.0 1.5308108399970803 0.8838152198007857 2.4998044076392936 1.5308108399970803 -1.0259855680060184e-08 -0.0 3.061623762744864" Properties=species:S:1:pos:R:3:forces:R:3 energy=-39564.0058152493 free_energy=-39564.0014763557 pbc="T T T"
Co       0.00000000       0.00000000       0.00000000      -0.00251866       0.00201005      -0.00000298
N        0.88381470       0.62495110       1.53081136       0.00251866      -0.00201005       0.00000298
2
Lattice="2.683781462240302 0.0 1.5494811049209514 0.8945945165409769 2.530292832027884 1.5494811049209514 -1.038498820370221e-08 -0.0 3.098964317994508" Properties=species:S:1:pos:R:3:forces:R:3 energy=-39563.9339975004 free_energy=-39563.9295082695 pbc="T T T"
Co       0.00000000       0.00000000       0.00000000      -0.00257110       0.00128550      -0.00000211
N        0.89459399       0.63257321       1.54948163       0.00257110      -0.00128550       0.00000211
2
Lattice="2.7153582586488643 0.0 1.5677119668884385 0.9051201235303964 2.5600637141712816 1.5677119668884385 -1.0507175744985805e-08 -0.0 3.135426066733553" Properties=species:S:1:pos:R:3:forces:R:3 energy=-39563.8354762452 free_energy=-39563.8308152807 pbc="T T T"
Co       0.00000000       0.00000000       0.00000000      -0.00173994       0.00010863      -0.00000135
N        0.90511959       0.64001593       1.56771250       0.00173994      -0.00010863       0.00000135
2
Lattice="2.7462172442780317 0.0 1.5855284008351531 0.9154064600739186 2.5891578379811815 1.5855284008351531 -1.0626585691826112e-08 -0.0 3.171058958867202" Properties=species:S:1:pos:R:3:forces:R:3 energy=-39563.7156463721 free_energy=-39563.7107937306 pbc="T T T"
Co       0.00000000       0.00000000       0.00000000      -0.00043320      -0.00090169      -0.00000068
N        0.91540592       0.64728946       1.58552894       0.00043320       0.00090169       0.00000068
8
Lattice="4.251439963522147 0.0 -0.0 -2.1257195129606012 3.681854602834403 0.0 0.0 0.0 3.925776139389415" Properties=species:S:1:pos:R:3:forces:R:3 energy=-252367.905566021 free_energy=-252367.897199395 pbc="T T T"
Ni      -1.42898285       2.47507116       1.96288807      -0.77917956       1.34233324      -0.00025141
Ni      -0.69673666       1.20678345       0.00000000       0.77917980      -1.34233392      -0.00025146
Ni       1.42898347       2.47507116       0.00000000       0.77913062       1.34230276       0.00027202
Ni       2.85796632       0.00000000       1.96288807       1.54511052      -0.00002857      -0.00002089
Ni       0.69673698       1.20678345       1.96288807      -0.77913108      -1.34230269       0.00027213
Ni       1.39347364       0.00000000       0.00000000      -1.54511035       0.00002932      -0.00002069
N        2.12572226       1.22728364       2.94433210      -0.00008376       0.00077127       0.00000042
N       -0.00000181       2.45457097       0.98144404       0.00008381      -0.00077141      -0.00000011
8
Lattice="4.3211480901409836 0.0 -0.0 -2.1605735685833998 3.742223604642886 0.0 0.0 0.0 3.9901445657460815" Properties=species:S:1:pos:R:3:forces:R:3 energy=-252369.562664987 free_energy=-252369.554936376 pbc="T T T"
Ni      -1.45241296       2.51565331       1.99507228      -0.57514757       0.97597942       0.00458228
Ni      -0.70816061       1.22657030       0.00000000       0.57514751      -0.97597939       0.00458221
Ni       1.45241359       2.51565331       0.00000000       0.57511785       0.97595921      -0.00456669
Ni       2.90482655       0.00000000       1.99507228       1.12479687      -0.00001602      -0.00001561
Ni       0.70816093       1.22657030       1.99507228      -0.57511792      -0.97595921      -0.00456643
Ni       1.41632154       0.00000000       0.00000000      -1.12479695       0.00001637      -0.00001573
N        2.16057636       1.24740662       2.99260842      -0.00006743       0.00035159      -0.00000015
N       -0.00000184       2.49481699       0.99753614       0.00006764      -0.00035198       0.00000012
8
Lattice="4.388676936400455 0.0 -0.0 -2.1943379842668223 3.8007052945074538 0.0 0.0 0.0 4.052500646424757" Properties=species:S:1:pos:R:3:forces:R:3 energy=-252370.724505551 free_energy=-252370.716251576 pbc="T T T"
Ni      -1.47511058       2.55496674       2.02625032      -0.39743184       0.67379792       0.00232417
Ni      -0.71922740       1.24573856       0.00000000       0.39743165      -0.67379811       0.00232406
Ni       1.47511122       2.55496674       0.00000000       0.39737141       0.67376396      -0.00230814
Ni       2.95022180       0.00000000       2.02625032       0.77944252      -0.00003472      -0.00001596
Ni       0.71922773       1.24573856       2.02625032      -0.39737133      -0.67376399      -0.00230802
Ni       1.43845513       0.00000000       0.00000000      -0.77944243       0.00003476      -0.00001602
N        2.19434082       1.26690049       3.03937548      -0.00006954       0.00029104      -0.00000002
N       -0.00000187       2.53380480       1.01312516       0.00006956      -0.00029087      -0.00000007
8
Lattice="4.454189235718602 0.0 -0.0 -2.227094126701944 3.8574406036865483 0.0 0.0 0.0 4.112994649328811" Properties=species:S:1:pos:R:3:forces:R:3 energy=-252371.493652397 free_energy=-252371.484824113 pbc="T T T"
Ni      -1.49713040       2.59310619       2.05649732      -0.25058817       0.43206013      -0.00186897
Ni      -0.72996372       1.26433441       0.00000000       0.25058869      -0.43206209      -0.00186887
Ni       1.49713105       2.59310619       0.00000000       0.25048216       0.43199786       0.00188106
Ni       2.99426146       0.00000000       2.05649732       0.50199130      -0.00005790      -0.00001208
Ni       0.72996406       1.26433441       2.05649732      -0.25048423      -0.43199749       0.00188072
Ni       1.45992778       0.00000000       0.00000000      -0.50199020       0.00005962      -0.00001212
N        2.22709701       1.28581224       3.08474598      -0.00008749       0.00052811       0.00000093
N       -0.00000190       2.57162836       1.02824866       0.00008794      -0.00052822      -0.00000067
8
Lattice="4.517829108602217 0.0 -0.0 -2.2589140561262693 3.912554344186417 0.0 0.0 0.0 4.171759655214791" Properties=species:S:1:pos:R:3:forces:R:3 energy=-252371.950499921 free_energy=-252371.941050276 pbc="T T T"
Ni      -1.51852087       2.63015557       2.08587982      -0.13216331       0.23853037      -0.00494471
Ni      -0.74039319       1.28239877       0.00000000       0.13216352      -0.23852823      -0.00494574
Ni       1.51852153       2.63015557       0.00000000       0.13218656       0.23853991       0.00495507
Ni       3.03704240       0.00000000       2.08587982       0.27810145       0.00001360      -0.00000952
Ni       0.74039352       1.28239877       2.08587982      -0.13218382      -0.23854107       0.00495443
Ni       1.48078671       0.00000000       0.00000000      -0.27810069      -0.00001517      -0.00000932
N        2.25891698       1.30418347       3.12881974      -0.00003980       0.00058647       0.00000182
N       -0.00000192       2.60837087       1.04293992       0.00003610      -0.00058587      -0.00000203
8
Lattice="4.57972487 0.0 -0.0 -2.28986193 3.96615764 0.0 0.0 0.0 4.22891415" Properties=species:S:1:pos:R:3:forces:R:3 energy=-252372.159750493 free_energy=-252372.150041543 pbc="T T T"
Ni      -1.53932511       2.66618958       2.11445707      -0.03244692       0.07249065      -0.00692004
Ni      -0.75053682       1.29996806       0.00000000       0.03244740      -0.07249220      -0.00692023
Ni       1.53932578       2.66618958       0.00000000       0.03241459       0.07247301       0.00693019
Ni       3.07865089       0.00000000       2.11445707       0.08478669      -0.00001733      -0.00000927
Ni       0.75053716       1.29996806       2.11445707      -0.03241613      -0.07247333       0.00692961
Ni       1.50107398       0.00000000       0.00000000      -0.08478495       0.00001820      -0.00001010
N        2.28986489       1.32205122       3.17168561      -0.00005332       0.00057755       0.00000046
N       -0.00000195       2.64410642       1.05722854       0.00005264      -0.00057655      -0.00000062
8
Lattice="4.639991318949639 0.0 -0.0 -2.319995147829321 4.018349909999242 0.0 0.0 0.0 4.284564139020712" Properties=species:S:1:pos:R:3:forces:R:3 energy=-252372.169448026 free_energy=-252372.158931049 pbc="T T T"
Ni      -1.55958171       2.70127505       2.14228206       0.04924676      -0.06988025      -0.00708273
Ni      -0.76041344       1.31707486       0.00000000      -0.04925121       0.06987988      -0.00708336
Ni       1.55958239       2.70127505       0.00000000      -0.04923093      -0.06987144       0.00709017
Ni       3.11916410       0.00000000       2.14228206      -0.08159333       0.00000874      -0.00000730
Ni       0.76041378       1.31707486       2.14228206       0.04923391       0.06987526       0.00709016
Ni       1.52082722       0.00000000       0.00000000       0.08159472      -0.00001327      -0.00000688
N        2.31999815       1.33944863       3.21342310      -0.00002194       0.00070403       0.00000017
N       -0.00000198       2.67890128       1.07114104       0.00002203      -0.00070296      -0.00000024
8
Lattice="4.698731622058238 0.0 -0.0 -2.3493652929064073 4.06922049907681 0.0 0.0 0.0 4.338804886236438" Properties=species:S:1:pos:R:3:forces:R:3 energy=-252372.021327418 free_energy=-252372.010024065 pbc="T T T"
Ni      -1.57932535       2.73547203       2.16940244       0.11728957      -0.19596465      -0.00446800
Ni      -0.77003995       1.33374847       0.00000000      -0.11728985       0.19596432      -0.00446792
Ni       1.57932603       2.73547203       0.00000000      -0.11730551      -0.19597606       0.00447250
Ni       3.15865138       0.00000000       2.16940244      -0.22951364      -0.00000925      -0.00000482
Ni       0.77004029       1.33374847       2.16940244       0.11730524       0.19597638       0.00447256
Ni       1.54008024       0.00000000       0.00000000       0.22951390       0.00000928      -0.00000484
N        2.34936833       1.35640547       3.25410366      -0.00003382       0.00031768       0.00000023
N       -0.00000200       2.71281503       1.08470122       0.00003412      -0.00031769       0.00000029
8
Lattice="4.756038875115164 0.0 -0.0 -2.3780189131156773 4.1188500305423394 0.0 0.0 0.0 4.391722356221935" Properties=species:S:1:pos:R:3:forces:R:3 energy=-252371.747503796 free_energy=-252371.735467825 pbc="T T T"
Ni      -1.59858731       2.76883473       2.19586117       0.17509193      -0.30922107       0.00023331
Ni      -0.77943160       1.35001530       0.00000000      -0.17509142       0.30922191       0.00023322
Ni       1.59858801       2.76883473       0.00000000      -0.17510610      -0.30923228      -0.00022989
Ni       3.19717532       0.00000000       2.19586117      -0.36075729      -0.00000865      -0.00000329
Ni       0.77943196       1.35001530       2.19586117       0.17510715       0.30923165      -0.00022971
Ni       1.55886356       0.00000000       0.00000000       0.36075631       0.00000841      -0.00000364
N        2.37802199       1.37294863       3.29379176      -0.00002697       0.00015962      -0.00000006
N       -0.00000203       2.74590140       1.09793059       0.00002639      -0.00015960       0.00000006
8
Lattice="4.811997407277226 0.0 -0.0 -2.405998173026238 4.167311535579814 0.0 0.0 0.0 4.443394418450725" Properties=species:S:1:pos:R:3:forces:R:3 energy=-252371.373659398 free_energy=-252371.360955457 pbc="T T T"
Ni      -1.61739595       2.80141225       2.22169720       0.22699590      -0.40779592       0.00366193
Ni      -0.78860223       1.36589929       0.00000000      -0.22699574       0.40779598       0.00366205
Ni       1.61739665       2.80141225       0.00000000      -0.22700400      -0.40780169      -0.00365887
Ni       3.23479260       0.00000000       2.22169720      -0.47402100      -0.00000455      -0.00000314
Ni       0.78860258       1.36589929       2.22169720       0.22700386       0.40780118      -0.00365877
Ni       1.57720481       0.00000000       0.00000000       0.47402081       0.00000484      -0.00000318
N        2.40600128       1.38910245       3.33254581      -0.00002627       0.00003859      -0.00000010
N       -0.00000205       2.77820908       1.11084861       0.00002644      -0.00003843       0.00000008
8
Lattice="4.86668387760422 0.0 -0.0 -2.4333414021595323 4.214671402875082 0.0 0.0 0.0 4.493891859835098" Properties=species:S:1:pos:R:3:forces:R:3 energy=-252370.912952498 free_energy=-252370.896838643 pbc="T T T"
Ni      -1.63577702       2.83324920       2.24694592       0.27273963      -0.48614169       0.00361513
Ni      -0.79756438       1.38142220       0.00000000      -0.27274037       0.48614134       0.00361518
Ni       1.63577773       2.83324920       0.00000000      -0.27274323      -0.48614425      -0.00361407
Ni       3.27155475       0.00000000       2.24694592      -0.56315357      -0.00000058      -0.00000109
Ni       0.79756474       1.38142220       2.24694592       0.27274300       0.48614468      -0.00361388
Ni       1.59512913       0.00000000       0.00000000       0.56315416       0.00000008      -0.00000089
N        2.43334455       1.40488906       3.37041889      -0.00001734       0.00014794      -0.00000055
N       -0.00000207       2.80978235       1.12347297       0.00001772      -0.00014750       0.00000017
40
Lattice="7.376099184405921 0.0 -2.60784477060052 -3.688048663885194 6.387888564770711 -2.60784477060052 -0.0 -0.0 7.8235333834837935" Properties=species:S:1:pos:R:3:forces:R:3 energy=-1202662.92171323 free_energy=-1202662.92171308 pbc="T T T"
Zn      -0.66390078       1.76556698      -0.65795863       0.10331759       0.25492073      -0.05276021
Zn      -0.75275343       4.77623240      -0.90929682       0.03330233      -0.14567498      -0.23870998
Zn       5.46016570       0.15391758       1.69855025       0.10872838       0.09787402      -0.23950102
Zn       1.57743995       3.04002670      -0.63398780      -0.19066552      -0.09981081       0.18111718
Zn       0.01694480       2.88611589       1.94988825       0.17761303      -0.21721768      -0.05611524
Zn       1.94984090       0.15391087      -0.40661238       0.23208900       0.11543879       0.11274852
Zn       0.64694585       1.73621208       4.55772755      -0.27034871      -0.04593135      -0.05346547
Zn      -1.57743513       3.04003341       4.58170911       0.18419310      -0.11233070       0.18223755
Zn       0.73581428       4.80560045      -3.01445708      -0.21631316       0.14617799       0.11370089
Zn       4.69044482       1.42837730      -0.40660474      -0.01320159      -0.26152626       0.11057066
Zn      -0.00000379       0.30782839       1.97386473       0.00943461       0.21374275       0.18396856
Zn       2.66869890       1.45773220       1.69855295      -0.14278852       0.04434014      -0.23956676
Zn       5.26548565       3.34785515      -1.97386526      -0.18419275       0.11233140      -0.18223749
Zn       3.04110467       4.65167648      -1.94988371       0.27034877       0.04593133       0.05346576
Zn       1.73820962       6.23397769       3.01445622      -0.23208908      -0.11543869      -0.11274846
Zn       3.67110572       3.50177267       0.65795560      -0.17761296       0.21721788       0.05611513
Zn       2.11061057       3.34786187       3.24183164       0.19066551       0.09981069      -0.18111695
Zn      -1.77211518       6.23397098       0.90929359      -0.10872845      -0.09787421       0.23950044
Zn       4.44080395       1.61165617       3.51714067      -0.03330224       0.14567470       0.23870995
Zn       4.35195130       4.62232158       3.26580247      -0.10331767      -0.25492057       0.05276015
Zn       2.95223625       1.58228811       5.62230092       0.21631282      -0.14617797      -0.11370089
Zn      -1.00239430       4.95951127       3.01444858       0.01320173       0.26152592      -0.11057075
Zn       3.68805431       6.08006018       0.63397912      -0.00943454      -0.21374287      -0.18396863
Zn       1.01935162       4.93015636       0.90929089       0.14278845      -0.04434012       0.23956672
N       -0.84501089       4.65754708       1.19502632       0.23931331      -0.41542340      -0.33886845
N       -2.61203483       4.79091642       4.02066206       0.48036323      -0.00108685       0.33846984
N        5.60907524       0.13336934       3.80287084       0.23921715       0.41577181      -0.33897148
N        2.61203576       1.59697214       3.80287086      -0.47928961       0.00027353      -0.33887064
N        3.61104921       3.06057494      -1.19502700      -0.23901733      -0.41487935       0.33884437
N        2.68903708       4.92428577      -3.80287156      -0.23973142       0.41481216       0.33917768
N        4.53306141       1.73034148       1.41281752      -0.23931329       0.41542337       0.33886845
N        6.30008536       1.59697214      -1.41281822      -0.48036345       0.00108691      -0.33846990
N       -1.92102472       6.25451922      -1.19502700      -0.23921724      -0.41577179       0.33897145
N        1.07601476       4.79091642      -1.19502702       0.47928953      -0.00027345       0.33887061
N        0.07700131       3.32731363       3.80287084       0.23901729       0.41487918      -0.33884427
N        0.99901344       1.46360280       6.41071540       0.23973150      -0.41481223      -0.33917766
N       -1.84402434       3.19394428      -1.30392239       0.00000014       0.00000005       0.00000019
N        3.68804959       0.00000000      -1.30392239       0.00000008      -0.00000002       0.00000007
N        0.00000000       0.00000000       3.91176669      -0.00000002      -0.00000005       0.00000006
N        1.84402526       3.19394428       1.30392192      -0.00000001      -0.00000001       0.00000001
40
Lattice="7.497040338535189 0.0 -2.6506039239770356 -3.748519225728799 6.492626664972214 -2.6506039239770356 -0.0 -0.0 7.951810828392311" Properties=species:S:1:pos:R:3:forces:R:3 energy=-1202669.03551212 free_energy=-1202669.03549765 pbc="T T T"
Zn      -0.67478634       1.79451585      -0.66874676       0.06589265       0.20930944      -0.02531581
Zn      -0.76509584       4.85454521      -0.92420598       0.00041939      -0.10854887      -0.18904795
Zn       5.54969253       0.15644127       1.72640029       0.09316415       0.05514344      -0.19156067
Zn       1.60330422       3.08987206      -0.64438289      -0.15154725      -0.05621780       0.15061001
Zn       0.01722263       2.93343768       1.98185931       0.15214383      -0.15832892      -0.02823004
Zn       1.98181119       0.15643445      -0.41327934       0.18307140       0.10450213       0.06808241
Zn       0.65755340       1.76467964       4.63245768      -0.21163809      -0.05395801      -0.02555997
Zn      -1.60329932       3.08987888       4.65683244       0.12614548      -0.10126231       0.14833707
Zn       0.74787895       4.88439479      -3.06388319      -0.17971928       0.10778575       0.06675430
Zn       4.76735103       1.45179748      -0.41327158      -0.00045794      -0.21226826       0.06443480
Zn      -0.00000385       0.31287565       2.00622892       0.02741659       0.15746464       0.15469879
Zn       2.71245584       1.48163370       1.72640303      -0.09531354       0.05241358      -0.19249353
Zn       5.35182043       3.40274778      -2.00622946      -0.12614552       0.10126243      -0.14833706
Zn       3.09096771       4.72794703      -1.98185470       0.21163804       0.05395795       0.02556002
Zn       1.76670992       6.33619222       3.06388232      -0.18307092      -0.10450224      -0.06808223
Zn       3.73129848       3.55918899       0.66874367      -0.15214379       0.15832884       0.02822993
Zn       2.14521689       3.40275460       3.29498587       0.15154743       0.05621792      -0.15061008
Zn      -1.80117141       6.33618539       0.92420270      -0.09316425      -0.05514349       0.19156061
Zn       4.51361696       1.63808146       3.57480896      -0.00041965       0.10854886       0.18904804
Zn       4.42330745       4.69811081       3.31934974      -0.06589259      -0.20930941       0.02531583
Zn       3.00064216       1.60823187       5.71448617       0.17971931      -0.10778572      -0.06675441
Zn      -1.01882992       5.04082918       3.06387456       0.00045782       0.21226856      -0.06443482
Zn       3.74852496       6.17975101       0.64437406      -0.02741664      -0.15746457      -0.15469874
Zn       1.03606528       5.01099297       0.92419995       0.09531333      -0.05241393       0.19249353
N       -0.85886599       4.73391388       1.21462040       0.17606654      -0.30566315      -0.24904419
N       -2.65486269       4.86947000       4.08658627       0.35351023      -0.00095110       0.24883421
N        5.70104364       0.13555611       3.86522407       0.17579191       0.30582255      -0.24947492
N        2.65486363       1.62315667       3.86522409      -0.35256577       0.00027059      -0.24937231
N        3.67025726       3.11075722      -1.21462109      -0.17592086      -0.30521530       0.24942723
N        2.73312749       5.00502611      -3.86522479      -0.17653456       0.30501337       0.24962761
N        4.60738711       1.75871278       1.43598258      -0.17606661       0.30566316       0.24904416
N        6.40338380       1.62315667      -1.43598329      -0.35351019       0.00095099      -0.24883418
N       -1.95252253       6.35707055      -1.21462109      -0.17579182      -0.30582238       0.24947496
N        1.09365748       4.86947000      -1.21462111       0.35256587      -0.00027074       0.24937230
N        0.07826385       3.38186945       3.86522407       0.17592080       0.30521523      -0.24942720
N        1.01539363       1.48760055       6.51582777       0.17653429      -0.30501329      -0.24962768
N       -1.87425962       3.24631333      -1.32530196       0.00000011       0.00000007      -0.00000001
N        3.74852017       0.00000000      -1.32530196      -0.00000003      -0.00000003      -0.00000003
N        0.00000000       0.00000000       3.97590541       0.00000004       0.00000004       0.00000008
N        1.87426055       3.24631333       1.32530149       0.00000008       0.00000001      -0.00000003
40
Lattice="7.614200517696159 0.0 -2.692026300887788 -3.8070993005641087 6.5940903451639175 -2.692026300887788 -0.0 -0.0 8.076077944379394" Properties=species:S:1:pos:R:3:forces:R:3 energy=-1202673.39647275 free_energy=-1202673.39617667 pbc="T T T"
Zn      -0.68533158       1.82255969      -0.67919761       0.04699277       0.16161628      -0.00020361
Zn      -0.77705240       4.93040973      -0.93864903      -0.01267163      -0.06847964      -0.14721059
Zn       5.63642048       0.15888606       1.75337965       0.06586642       0.02624050      -0.15187363
Zn       1.62835990       3.13815911      -0.65445299      -0.12348243      -0.02609687       0.11132465
Zn       0.01749178       2.97928005       2.01283086       0.11593039      -0.11617289      -0.00381554
Zn       2.01278199       0.15887913      -0.41973788       0.13058838       0.09455602       0.04226327
Zn       0.66782934       1.79225721       4.70485152      -0.16177027      -0.04456048       0.00129312
Zn      -1.62835492       3.13816604       4.72960721       0.08330709      -0.09365924       0.11024407
Zn       0.75956645       4.96072579      -3.11176410      -0.14432734       0.06693437       0.04006549
Zn       4.84185292       1.47448548      -0.41972999       0.01454459      -0.16241351       0.03851566
Zn      -0.00000391       0.31776513       2.03758131       0.03804217       0.11763931       0.11429585
Zn       2.75484481       1.50478796       1.75338244      -0.05334947       0.04235868      -0.15209209
Zn       5.43545613       3.45592430      -2.03758186      -0.08330713       0.09365937      -0.11024403
Zn       3.13927188       4.80183314      -2.01282618       0.16177027       0.04456042      -0.00129310
Zn       1.79431923       6.43521121       3.11176322      -0.13058849      -0.09455588      -0.04226352
Zn       3.78960944       3.61481030       0.67919448      -0.11593036       0.11617291       0.00381559
Zn       2.17874132       3.45593123       3.34647834       0.12348196       0.02609694      -0.11132502
Zn      -1.82931926       6.43520428       0.93864570      -0.06586648      -0.02624033       0.15187368
Zn       4.58415361       1.66368062       3.63067437       0.01267195       0.06847954       0.14721072
Zn       4.49243280       4.77153065       3.37122295      -0.04699298      -0.16161610       0.00020369
Zn       3.04753477       1.63336456       5.80378944       0.14432762      -0.06693432      -0.04006561
Zn      -1.03475171       5.11960486       3.11175533      -0.01454440       0.16241333      -0.03851547
Zn       3.80710513       6.27632522       0.65444403      -0.03804217      -0.11763932      -0.11429566
Zn       1.05225641       5.08930238       0.93864291       0.05334974      -0.04235857       0.15209207
N       -0.87228794       4.80789324       1.23360191       0.12232152      -0.21242628      -0.17288691
N       -2.69635162       4.94556776       4.15044950       0.24560588      -0.00079688       0.17282681
N        5.79013684       0.13767452       3.92562795       0.12189719       0.21234961      -0.17345881
N        2.69635258       1.64852259       3.92562797      -0.24496328       0.00025447      -0.17341730
N        3.72761429       3.15937065      -1.23360261      -0.12213435      -0.21199872       0.17350075
N        2.77583950       5.08324228      -3.92562869      -0.12269330       0.21164281       0.17366937
N        4.67938916       1.78619711       1.45842343      -0.12232162       0.21242611       0.17288688
N        6.50345284       1.64852259      -1.45842415      -0.24560601       0.00079680      -0.17282696
N       -1.98303562       6.45641582      -1.23360261      -0.12189730      -0.21234953       0.17345883
N        1.11074864       4.94556776      -1.23360263       0.24496312      -0.00025467       0.17341735
N        0.07948692       3.43471969       3.92562795       0.12213432       0.21199882      -0.17350067
N        1.03126171       1.51084807       6.61765403       0.12269344      -0.21164296      -0.17366939
N       -1.90354966       3.29704517      -1.34601315       0.00000008      -0.00000000       0.00000008
N        3.80710026       0.00000000      -1.34601315      -0.00000005      -0.00000002      -0.00000005
N        0.00000000       0.00000000       4.03803897       0.00000002      -0.00000001       0.00000001
N        1.90355060       3.29704517       1.34601267       0.00000015      -0.00000005       0.00000003
40
Lattice="7.727862058659991 0.0 -2.7322117224514755 -3.8639300567411694 6.692524116134901 -2.7322117224514755 -0.0 -0.0 8.196634194765602" Properties=species:S:1:pos:R:3:forces:R:3 energy=-1202676.35671838 free_energy=-1202676.35526245 pbc="T T T"
Zn      -0.69556192       1.84976609      -0.68933638       0.04270484       0.11489054       0.01516819
Zn      -0.78865190       5.00400878      -0.95266078      -0.00557281      -0.03378663      -0.11296412
Zn       5.72055856       0.16125784       1.77955335       0.03290815       0.01376756      -0.11803184
Zn       1.65266736       3.18500421      -0.66422239      -0.10207493      -0.01352710       0.06970667
Zn       0.01775289       3.02375347       2.04287755       0.07548818      -0.09073108       0.01143357
Zn       2.04282794       0.16125081      -0.42600354       0.08253761       0.08169686       0.03491066
Zn       0.67779841       1.81901126       4.77508354      -0.11994730      -0.02278442       0.01796042
Zn      -1.65266230       3.18501125       4.80020877       0.05789762      -0.08275258       0.07163689
Zn       0.77090493       5.03477739      -3.15821519      -0.10926687       0.03254132       0.03411570
Zn       4.91413004       1.49649597      -0.42599554       0.02579089      -0.11536322       0.03238541
Zn      -0.00000397       0.32250859       2.06799745       0.03748376       0.09280653       0.07009038
Zn       2.79596795       1.52725080       1.77955618      -0.02481660       0.01886876      -0.11681766
Zn       5.51659431       3.50751287      -2.06799802      -0.05789762       0.08275258      -0.07163645
Zn       3.18613359       4.87351286      -2.04287279       0.11994731       0.02278429      -0.01796029
Zn       1.82110406       6.53127330       3.15821429      -0.08253788      -0.08169680      -0.03491077
Zn       3.84617911       3.66877065       0.68933320      -0.07548819       0.09073102      -0.01143363
Zn       2.21126464       3.50751990       3.39643314       0.10207493       0.01352730      -0.06970680
Zn      -1.85662656       6.53126627       0.95265740      -0.03290821      -0.01376752       0.11803179
Zn       4.65258391       1.68851533       3.68487153       0.00557255       0.03378648       0.11296392
Zn       4.55949392       4.84275803       3.42154713      -0.04270486      -0.11489047      -0.01516822
Zn       3.09302707       1.65774673       5.89042594       0.10926714      -0.03254123      -0.03411568
Zn      -1.05019804       5.19602814       3.15820629      -0.02579082       0.11536341      -0.03238543
Zn       3.86393597       6.37001553       0.66421330      -0.03748370      -0.09280656      -0.07009040
Zn       1.06796405       5.16527332       0.95265457       0.02481650      -0.01886876       0.11681774
N       -0.88530908       4.87966342       1.25201659       0.07649566      -0.13311503      -0.10830391
N       -2.73660161       5.01939309       4.21240564       0.15395872      -0.00058947       0.10825837
N        5.87656953       0.13972967       3.98422805       0.07612623       0.13296591      -0.10868847
N        2.73660258       1.67313103       3.98422807      -0.15344698       0.00031220      -0.10881324
N        3.78325853       3.20653239      -1.25201730      -0.07624131      -0.13265383       0.10879015
N        2.81727605       5.15912275      -3.98422880      -0.07680878       0.13236011       0.10906241
N        4.74924109       1.81286070       1.48019416      -0.07649571       0.13311499       0.10830392
N        6.60053361       1.67313103      -1.48019489      -0.15395869       0.00058943      -0.10825837
N       -2.01263753       6.55279445      -1.25201730      -0.07612616      -0.13296600       0.10868852
N        1.12732942       5.01939309      -1.25201732       0.15344707      -0.00031233       0.10881322
N        0.08067347       3.48599173       3.98422805       0.07624141       0.13265382      -0.10879018
N        1.04665595       1.53340136       6.71643955       0.07680879      -0.13236008      -0.10906243
N       -1.93196503       3.34626206      -1.36610586       0.00000002      -0.00000001      -0.00000002
N        3.86393103       0.00000000      -1.36610586      -0.00000002      -0.00000000      -0.00000003
N        0.00000000       0.00000000       4.09831710       0.00000002       0.00000000      -0.00000004
N        1.93196600       3.34626206       1.36610537       0.00000001      -0.00000002       0.00000005
40
Lattice="7.8382750054498205 0.0 -2.771248592576703 -3.919136516240081 6.788144522337207 -2.771248592576703 -0.0 -0.0 8.31374479124528" Properties=species:S:1:pos:R:3:forces:R:3 energy=-1202678.19459835 free_energy=-1202678.19251347 pbc="T T T"
Zn      -0.70549986       1.87619489      -0.69918538       0.04590491       0.07315702       0.02093376
Zn      -0.79991988       5.07550428      -0.96627206       0.00969547      -0.00811752      -0.08474745
Zn       5.80229187       0.16356184       1.80497898       0.00265636       0.01221901      -0.08856359
Zn       1.67628009       3.23051042      -0.67371256      -0.08302467      -0.01261770       0.03189789
Zn       0.01800653       3.06695579       2.07206545       0.03865169      -0.07616467       0.01631255
Zn       2.07201514       0.16355471      -0.43209013       0.04433343       0.06619452       0.03694197
Zn       0.68748255       1.84500065       4.84330824      -0.08552157       0.00170016       0.02285996
Zn      -1.67627496       3.23051756       4.86879244       0.04585254      -0.06695324       0.03630692
Zn       0.78191934       5.10671250      -3.20333865      -0.07745288       0.00781717       0.03927511
Zn       4.98434139       1.51787738      -0.43208201       0.03213051      -0.07440203       0.03591500
Zn      -0.00000402       0.32711648       2.09754427       0.02993678       0.07717315       0.03077538
Zn       2.83591575       1.54907161       1.80498185      -0.00988132      -0.00656431      -0.08663982
Zn       5.59541344       3.55762697      -2.09754484      -0.04585244       0.06695324      -0.03630707
Zn       3.23165594       4.94314387      -2.07206063       0.08552142      -0.00170010      -0.02286048
Zn       1.84712335       6.62458982       3.20333774      -0.04433341      -0.06619447      -0.03694199
Zn       3.90113195       3.72118874       0.69918215      -0.03865158       0.07616479      -0.01631248
Zn       2.24285840       3.55763410       3.44496017       0.08302468       0.01261732      -0.03189813
Zn      -1.88315338       6.62458268       0.96626863      -0.00265641      -0.01221890       0.08856363
Zn       4.71905837       1.71264024       3.73751967      -0.00969537       0.00811726       0.08474746
Zn       4.62463835       4.91194964       3.47043298      -0.04590497      -0.07315685      -0.02093376
Zn       3.13721914       1.68143202       5.97458625       0.07745323      -0.00781704      -0.03927480
Zn      -1.06520290       5.27026715       3.20332962      -0.03213052       0.07440196      -0.03591454
Zn       3.91914251       6.46102805       0.67370334      -0.02993687      -0.07717313      -0.03077532
Zn       1.08322274       5.23907291       0.96626576       0.00988114       0.00656432       0.08663971
N       -0.89795807       4.94938232       1.26990496       0.03752477      -0.06577455      -0.05352188
N       -2.77570120       5.09110839       4.27259099       0.07632141      -0.00065278       0.05338432
N        5.96053187       0.14172608       4.04115329       0.03726218       0.06580072      -0.05356669
N        2.77570219       1.69703613       4.04115331      -0.07565289       0.00036678      -0.05389363
N        3.83731238       3.25234619      -1.26990568      -0.03721296      -0.06523492       0.05367412
N        2.85752829       5.23283447      -4.04115405      -0.03774683       0.06519813       0.05403399
N        4.81709656       1.83876221       1.50134265      -0.03752481       0.06577446       0.05352185
N        6.69483969       1.69703613      -1.50134339      -0.07632146       0.00065286      -0.05338427
N       -2.04139338       6.64641845      -1.26990568      -0.03726221      -0.06580079       0.05356667
N        1.14343630       5.09110839      -1.26990570       0.07565286      -0.00036672       0.05389353
N        0.08182611       3.53579834       4.04115329       0.03721292       0.06523478      -0.05367418
N        1.06161020       1.55531005       6.81240165       0.03774683      -0.06519806      -0.05403389
N       -1.95956826       3.39407226      -1.38562430       0.00000001       0.00000006       0.00000006
N        3.91913750       0.00000000      -1.38562430       0.00000002       0.00000006       0.00000005
N        0.00000000       0.00000000       4.15687240      -0.00000000       0.00000001      -0.00000005
N        1.95956924       3.39407226       1.38562380       0.00000002       0.00000001       0.00000005
40
Lattice="7.94566198 0.0 -2.80921562 -3.97282999 6.88114436 -2.80921562 -0.0 -0.0 8.42764586" Properties=species:S:1:pos:R:3:forces:R:3 energy=-1202679.12802564 free_energy=-1202679.12596061 pbc="T T T"
Zn      -0.71516544       1.90189938      -0.70876445       0.04806599       0.03917140       0.02190139
Zn      -0.81087905       5.14504038      -0.97951031       0.02018304       0.00955205      -0.06105354
Zn       5.88178520       0.16580269       1.82970779      -0.01843939       0.01131715      -0.06302540
Zn       1.69924568       3.27476949      -0.68294265      -0.06476644      -0.01315690       0.00309035
Zn       0.01825323       3.10897410       2.10045344       0.01108614      -0.06334823       0.01666323
Zn       2.10040244       0.16579546      -0.43800991       0.01636952       0.05114586       0.03773302
Zn       0.69690129       1.87027777       4.90966317      -0.05723364       0.01998521       0.02253909
Zn      -1.69924048       3.27477672       4.93549652       0.03921204      -0.04988817       0.00789101
Zn       0.79263190       5.17667616      -3.24722545      -0.05116654      -0.00863009       0.04257828
Zn       5.05262852       1.53867280      -0.43800168       0.03486051      -0.04199943       0.03766148
Zn      -0.00000408       0.33159808       2.12628132       0.02210909       0.06278038       0.00163472
Zn       2.87476874       1.57029441       1.82971070      -0.00142325      -0.02369639      -0.06138185
Zn       5.67207247       3.60636764      -2.12628190      -0.03921218       0.04988827      -0.00789127
Zn       3.27593070       5.01086659      -2.10044855       0.05723337      -0.01998537      -0.02253917
Zn       1.87242955       6.71534890       3.24722453      -0.01636965      -0.05114580      -0.03773304
Zn       3.95457876       3.77217026       0.70876118      -0.01108595       0.06334861      -0.01666309
Zn       2.27358631       3.60637487       3.49215727       0.06476648       0.01315637      -0.00309019
Zn      -1.90895321       6.71534167       0.97950683       0.01843959      -0.01131719       0.06302534
Zn       4.78371104       1.73610398       3.78872493      -0.02018306      -0.00955234       0.06105332
Zn       4.68799743       4.97924498       3.51797907      -0.04806615      -0.03917155      -0.02190150
Zn       3.18020009       1.70446820       6.05644007       0.05116640       0.00863020      -0.04257819
Zn      -1.07979653       5.34247156       3.24721630      -0.03486032       0.04199952      -0.03766151
Zn       3.97283607       6.54954628       0.68293330      -0.02210914      -0.06278030      -0.00163452
Zn       1.09806325       5.31084995       0.97950392       0.00142344       0.02369644       0.06138203
N       -0.91026039       5.01719050       1.28730308       0.00404907      -0.00777244      -0.00610135
N       -2.81372923       5.16085827       4.33112691       0.00948049      -0.00076403       0.00599513
N        6.04219314       0.14366777       4.09651843       0.00382740       0.00812399      -0.00589590
N        2.81373023       1.72028609       4.09651845      -0.00855307       0.00019152      -0.00632775
N        3.88988484       3.29690441      -1.28730381      -0.00385600      -0.00723409       0.00621879
N        2.89667738       5.30452604      -4.09651920      -0.00421072       0.00741996       0.00657867
N        4.88309238       1.86395386       1.52191154      -0.00404908       0.00777249       0.00610134
N        6.78656122       1.72028609      -1.52191229      -0.00948049       0.00076407      -0.00599513
N       -2.06936115       6.73747659      -1.28730381      -0.00382739      -0.00812395       0.00589589
N        1.15910176       5.16085827      -1.28730383       0.00855306      -0.00019149       0.00632774
N        0.08294715       3.58423995       4.09651843       0.00385599       0.00723413      -0.00621878
N        1.07615461       1.57661832       6.90573382       0.00421072      -0.00741992      -0.00657867
N       -1.98641500       3.44057218      -1.40460781       0.00000004       0.00000002       0.00000001
N        3.97283099       0.00000000      -1.40460781       0.00000000       0.00000002      -0.00000000
N        0.00000000       0.00000000       4.21382293       0.00000000       0.00000002      -0.00000000
N        1.98641599       3.44057218       1.40460731       0.00000005       0.00000001      -0.00000000
40
Lattice="8.05022215461345 0.0 -2.84618322276153 -4.025110064147322 6.971696117378177 -2.84618322276153 -0.0 -0.0 8.538548655125187" Properties=species:S:1:pos:R:3:forces:R:3 energy=-1202679.33170325 free_energy=-1202679.32962515 pbc="T T T"
Zn      -0.72457659       1.92692724      -0.71809137       0.04518252       0.01620091       0.02368379
Zn      -0.82154973       5.21274604      -0.99240008       0.02195458       0.02129407      -0.04345476
Zn       5.95918599       0.16798455       1.85378565      -0.02986639       0.00648601      -0.04393003
Zn       1.72160674       3.31786350      -0.69192977      -0.05042706      -0.00923502      -0.01399552
Zn       0.01849343       3.14988635       2.12809416      -0.00494629      -0.05023103       0.01855757
Zn       2.12804248       0.16797723      -0.44377386      -0.00215722       0.04099380       0.03387568
Zn       0.70607210       1.89488951       4.97427141      -0.03660892       0.02832877       0.02306147
Zn      -1.72160147       3.31787083       5.00044471       0.03203689      -0.03808462      -0.01032829
Zn       0.80306246       5.24479813      -3.28995700      -0.03357834      -0.01977837       0.03908580
Zn       5.11911810       1.55892082      -0.44376552       0.03686471      -0.02038888       0.03419745
Zn      -0.00000413       0.33596171       2.15426191       0.01895029       0.04869420      -0.01565784
Zn       2.91259898       1.59095855       1.85378860       0.00585289      -0.03015731      -0.04292659
Zn       5.74671356       3.65382529      -2.15426250      -0.03203710       0.03808473       0.01032802
Zn       3.31903999       5.07680661      -2.12808920       0.03660896      -0.02832868      -0.02306151
Zn       1.89706961       6.80371889       3.28995607       0.00215718      -0.04099383      -0.03387568
Zn       4.00661866       3.82180977       0.71808805       0.00494653       0.05023122      -0.01855732
Zn       2.30350535       3.65383261       3.53811198       0.05042722       0.00923511       0.01399572
Zn      -1.93407390       6.80371156       0.99239656       0.02986630      -0.00648588       0.04393010
Zn       4.84666183       1.75895007       3.83858229      -0.02195509      -0.02129407       0.04345469
Zn       4.74968868       5.04476888       3.56427358      -0.04518243      -0.01620103      -0.02368377
Zn       3.22204963       1.72689799       6.13613921       0.03357830       0.01977838      -0.03908577
Zn      -1.09400601       5.41277530       3.28994773      -0.03686468       0.02038895      -0.03419764
Zn       4.02511622       6.63573440       0.69192030      -0.01895017      -0.04869415       0.01565774
Zn       1.11251311       5.38073757       0.99239361      -0.00585271       0.03015741       0.04292667
N       -0.92223887       5.08321374       1.30424322      -0.02481906       0.04226350       0.03503356
N       -2.85075623       5.22877209       4.38812196      -0.04848970      -0.00082279      -0.03509949
N        6.12170480       0.14555835       4.15042617      -0.02494496      -0.04184727       0.03508397
N        2.85075724       1.74292403       4.15042619       0.04942512      -0.00004936       0.03477909
N        3.94107341       3.34028971      -1.30424396       0.02482249       0.04300870      -0.03455668
N        2.93479593       5.37433044      -4.15042695       0.02470366      -0.04268509      -0.03447498
N        4.94735096       1.88848238       1.54193899       0.02481907      -0.04226359      -0.03503355
N        6.87586832       1.74292403      -1.54193975       0.04848972       0.00082270       0.03509950
N       -2.09659271       6.82613777      -1.30424396       0.02494500       0.04184716      -0.03508396
N        1.17435485       5.22877209      -1.30424398      -0.04942509       0.00004923      -0.03477909
N        0.08403869       3.63140641       4.15042617      -0.02482259      -0.04300877       0.03455669
N        1.09031616       1.59736568       6.99660916      -0.02470368       0.04268499       0.03447496
N       -2.01255504       3.48584806      -1.42309161       0.00000005      -0.00000003      -0.00000001
N        4.02511108       0.00000000      -1.42309161      -0.00000004      -0.00000002      -0.00000001
N        0.00000000       0.00000000       4.26927433      -0.00000000      -0.00000003      -0.00000001
N        2.01255604       3.48584806       1.42309110       0.00000004      -0.00000004       0.00000003
40
Lattice="8.152134519734124 0.0 -2.8822146835370788 -4.076066233881495 7.059954804726011 -2.8822146835370788 -0.0 -0.0 8.64664302462567" Properties=species:S:1:pos:R:3:forces:R:3 energy=-1202678.94865594 free_energy=-1202678.94656464 pbc="T T T"
Zn      -0.73374942       1.95132132      -0.72718210       0.03669584       0.00079405       0.02803837
Zn      -0.83195020       5.27873718      -1.00496344       0.01688463       0.03020137      -0.02896359
Zn       6.03462673       0.17011117       1.87725379      -0.03505498      -0.00277908      -0.02873723
Zn       1.74340154       3.35986624      -0.70068930      -0.03865035       0.00012170      -0.02359309
Zn       0.01872755       3.18976256       2.15503492      -0.01312682      -0.03496528       0.02359863
Zn       2.15498259       0.17010375      -0.44939185      -0.01555600       0.03459280       0.02521687
Zn       0.71501067       1.91887800       5.03724356      -0.01983417       0.02886892       0.02686021
Zn      -1.74339621       3.35987365       5.06374820       0.01994062      -0.03192133      -0.02127160
Zn       0.81322889       5.31119503      -3.33160645      -0.02202221      -0.02902916       0.02852695
Zn       5.18392394       1.57865609      -0.44938340       0.03890297      -0.00516770       0.02526015
Zn      -0.00000419       0.34021484       2.18153395       0.02064874       0.03344263      -0.02467567
Zn       2.94947124       1.61109940       1.87725677       0.01564238      -0.02894848      -0.02845857
Zn       5.81946449       3.70008115      -2.18153454      -0.01994050       0.03192127       0.02127163
Zn       3.36105762       5.14107680      -2.15502990       0.01983409      -0.02886887      -0.02686011
Zn       1.92108570       6.88985106       3.33160550       0.01555609      -0.03459278      -0.02521677
Zn       4.05734074       3.87019225       0.72717874       0.01312658       0.03496528      -0.02359892
Zn       2.33266674       3.70008857       3.58290296       0.03865019      -0.00012164       0.02359293
Zn      -1.95855844       6.88984364       1.00495987       0.03505500       0.00277907       0.02873740
Zn       4.90801849       1.78121763       3.88717710      -0.01688473      -0.03020141       0.02896368
Zn       4.80981771       5.10863349       3.60939575      -0.03669591      -0.00079409      -0.02803839
Zn       3.26283940       1.74875977       6.21382011       0.02202247       0.02902927      -0.02852704
Zn      -1.10785566       5.48129872       3.33159706      -0.03890275       0.00516776      -0.02525998
Zn       4.07607247       6.71973996       0.70067971      -0.02064871      -0.03344262       0.02467560
Zn       1.12659705       5.44885540       1.00495689      -0.01564233       0.02894842       0.02845862
N       -0.93391402       5.14756504       1.32075438      -0.04980106       0.08551988       0.07064391
N       -2.88684558       5.29496610       4.44367370      -0.09880479      -0.00090414      -0.07058186
N        6.19920296       0.14740106       4.20296879      -0.04995159      -0.08535536       0.07037903
N        2.88684661       1.76498870       4.20296881       0.09969174      -0.00022163       0.07021311
N        3.99096571       3.38257634      -1.32075513       0.04985754       0.08659007      -0.06982790
N        2.97194919       5.44236716      -4.20296958       0.04971656      -0.08634817      -0.07012887
N        5.00998231       1.91238976       1.56145928       0.04980101      -0.08551987      -0.07064392
N        6.96291387       1.76498870      -1.56146005       0.09880474       0.00090415       0.07058191
N       -2.12313467       6.91255375      -1.32075513       0.04995156       0.08535526      -0.07037910
N        1.18922168       5.29496610      -1.32075515      -0.09969175       0.00022165      -0.07021312
N        0.08510258       3.67737846       4.20296879      -0.04985760      -0.08659009       0.06982793
N        1.10411910       1.61758764       7.08518324      -0.04971657       0.08634819       0.07012883
N       -2.03803312       3.52997740      -1.44110734       0.00000002       0.00000001      -0.00000001
N        4.07606726       0.00000000      -1.44110734       0.00000002      -0.00000003      -0.00000001
N        0.00000000       0.00000000       4.32332151      -0.00000000      -0.00000002       0.00000001
N        2.03803414       3.52997740       1.44110683       0.00000004      -0.00000001      -0.00000001
40
Lattice="8.251560593290515 0.0 -2.9173671075355987 -4.125779258146437 7.1460603006572 -2.9173671075355987 -0.0 -0.0 8.752100284107977" Properties=species:S:1:pos:R:3:forces:R:3 energy=-1202678.09452863 free_energy=-1202678.09242422 pbc="T T T"
Zn      -0.74269847       1.97512026      -0.73605105       0.02857356      -0.00950506       0.03508647
Zn      -0.84209694       5.34311837      -1.01722030       0.01002856       0.03924920      -0.01811906
Zn       6.10822699       0.17218590       1.90014938      -0.03892075      -0.01416081      -0.01825084
Zn       1.76466463       3.40084425      -0.70923514      -0.03108216       0.01179994      -0.03087257
Zn       0.01895596       3.22866594       2.18131842      -0.01812311      -0.02138163       0.03246090
Zn       2.18126546       0.17217839      -0.45487277      -0.02720350       0.03312251       0.01549824
Zn       0.72373117       1.94228126       5.09867941      -0.00670116       0.02701587       0.03428846
Zn      -1.76465923       3.40085176       5.12550731       0.00606074      -0.03151403      -0.03038504
Zn       0.82314729       5.37597209      -3.37223980      -0.01499801      -0.03882026       0.01596268
Zn       5.24714876       1.59790989      -0.45486423       0.04323194       0.00598636       0.01527982
Zn      -0.00000424       0.34436421       2.20814064       0.02632757       0.02038574      -0.03024844
Zn       2.98544395       1.63074889       1.90015240       0.02766066      -0.02653033      -0.01845807
Zn       5.89044057       3.74520854      -2.20814124      -0.00606086       0.03151426       0.03038527
Zn       3.40205017       5.20377904      -2.18131334       0.00670114      -0.02701580      -0.03428839
Zn       1.94451588       6.97388191       3.37223884       0.02720362      -0.03312260      -0.01549818
Zn       4.10682538       3.91739437       0.73604765       0.01812313       0.02138166      -0.03246097
Zn       2.36111670       3.74521605       3.62660121       0.03108234      -0.01179991       0.03087243
Zn      -1.98244566       6.97387440       1.01721669       0.03892069       0.01416076       0.01825041
Zn       4.96787827       1.80294194       3.93458637      -0.01002846      -0.03924935       0.01811894
Zn       4.86847980       5.17094004       3.65341711      -0.02857350       0.00950506      -0.03508640
Zn       3.30263404       1.77008822       6.28960587       0.01499818       0.03882015      -0.01596266
Zn      -1.12136742       5.54815041       3.37223030      -0.04323192      -0.00598651      -0.01527955
Zn       4.12578557       6.80169609       0.70922543      -0.02632771      -0.02038567       0.03024848
Zn       1.14033739       5.51531141       1.01721367      -0.02766077       0.02653046       0.01845818
N       -0.94530434       5.21034642       1.33686273      -0.07158917       0.12329917       0.10153231
N       -2.92205449       5.35954523       4.49787019      -0.14250081      -0.00079393      -0.10129223
N        6.27481045       0.14919881       4.25422956      -0.07175780      -0.12335012       0.10098125
N        2.92205552       1.78651508       4.25422958       0.14326959      -0.00018799       0.10112573
N        4.03964082       3.42383134      -1.33686349       0.07167369       0.12435880      -0.10085447
N        3.00819604       5.50874404      -4.25423036       0.07150864      -0.12440138      -0.10092110
N        5.07108568       1.93571388       1.58050334       0.07158911      -0.12329912      -0.10153230
N        7.04783582       1.78651508      -1.58050412       0.14250083       0.00079390       0.10129222
N       -2.14902911       6.99686149      -1.33686349       0.07175771       0.12335016      -0.10098126
N        1.20372581       5.35954523      -1.33686351      -0.14326960       0.00018793      -0.10112575
N        0.08614052       3.72222896       4.25422956      -0.07167375      -0.12435877       0.10085448
N        1.11758529       1.63731627       7.17159643      -0.07150861       0.12440130       0.10092107
N       -2.06288963       3.57303015      -1.45868355      -0.00000001       0.00000002      -0.00000004
N        4.12578030       0.00000000      -1.45868355      -0.00000005       0.00000002      -0.00000003
N        0.00000000       0.00000000       4.37605014      -0.00000002      -0.00000000      -0.00000001
N        2.06289066       3.57303015       1.45868303       0.00000003      -0.00000001       0.00000001
40
Lattice="8.348646683411188 0.0 -2.9516922224899256 -4.1743222909880195 7.230139311713787 -2.9516922224899256 -0.0 -0.0 8.855075616752202" Properties=species:S:1:pos:R:3:forces:R:3 energy=-1202676.86201059 free_energy=-1202676.85989299 pbc="T T T"
Zn      -0.75143690       1.99835910      -0.74471126       0.02247089      -0.01804706       0.04370540
Zn      -0.85200487       5.40598435      -1.02918870       0.00303113       0.04944179      -0.00943309
Zn       6.18009508       0.17421180       1.92250613      -0.04426812      -0.02516732      -0.01021911
Zn       1.78542730       3.44085786      -0.71757984      -0.02581959       0.02349650      -0.03849556
Zn       0.01917899       3.26665373       2.20698334      -0.02371046      -0.01003483       0.04295419
Zn       2.20692976       0.17420420      -0.46022471      -0.03883835       0.03420596       0.00644083
Zn       0.73224643       1.96513372       5.15866938       0.00449830       0.02575816       0.04353632
Zn      -1.78542184       3.44086545       5.18581293      -0.00726086      -0.03373150      -0.03956772
Zn       0.83283227       5.43922462      -3.41191685      -0.00944826      -0.04994833       0.00517118
Zn       5.30888558       1.61671055      -0.46021606       0.04913944       0.01552487       0.00576377
Zn      -0.00000429       0.34841593       2.23412115       0.03338521       0.00969160      -0.03634813
Zn       3.02057004       1.64993593       1.92250919       0.04120557      -0.02571905      -0.01083300
Zn       5.95974623       3.78927386      -2.23412176       0.00726087       0.03373141       0.03956787
Zn       3.44207796       5.26500559      -2.20697821      -0.00449841      -0.02575821      -0.04353638
Zn       1.96739464       7.05593511       3.41191588       0.03883835      -0.03420586      -0.00644088
Zn       4.15514540       3.96348559       0.74470783       0.02371043       0.01003479      -0.04295428
Zn       2.38889709       3.78928146       3.66927102       0.02581947      -0.02349675       0.03849557
Zn      -2.00577069       7.05592751       1.02918504       0.04426802       0.02516739       0.01021862
Zn       5.02632926       1.82415496       3.98087987      -0.00303092      -0.04944183       0.00943319
Zn       4.92576129       5.23178021       3.69640244      -0.02247076       0.01804699      -0.04370548
Zn       3.34149212       1.79091469       6.36360802       0.00944813       0.04994838      -0.00517122
Zn      -1.13456119       5.61342876       3.41190723      -0.04913958      -0.01552502      -0.00576347
Zn       4.17432868       6.88172338       0.71757002      -0.03338515      -0.00969161       0.03634829
Zn       1.15375435       5.58020338       1.02918198      -0.04120548       0.02571927       0.01083291
N       -0.95642659       5.27165023       1.35259197      -0.09077346       0.15652391       0.12853097
N       -2.95643475       5.42260448       4.55079116      -0.18073162      -0.00063684      -0.12839995
N        6.34863852       0.15095425       4.30428391      -0.09089273      -0.15680215       0.12782600
N        2.95643580       1.80753483       4.30428393       0.18130480      -0.00019396       0.12828548
N        4.08717036       3.46411541      -1.35259274       0.09091680       0.15721988      -0.12803214
N        3.04358983       5.57355873      -4.30428472       0.09042751      -0.15748452      -0.12784082
N        5.13075098       1.95848908       1.59909920       0.09077347      -0.15652387      -0.12853095
N        7.13075914       1.80753483      -1.59909999       0.18073163       0.00063688       0.12839999
N       -2.17431413       7.07918506      -1.35259274       0.09089274       0.15680220      -0.12782597
N        1.21788859       5.42260448      -1.35259276      -0.18130479       0.00019401      -0.12828546
N        0.08715403       3.76602391       4.30428391      -0.09091680      -0.15721990       0.12803218
N        1.13073456       1.65658058       7.25597589      -0.09042750       0.15748460       0.12784087
N       -2.08716115       3.61506966      -1.47584611       0.00000002      -0.00000000       0.00000000
N        4.17432334       0.00000000      -1.47584611       0.00000001       0.00000002      -0.00000000
N        0.00000000       0.00000000       4.42753781       0.00000000       0.00000001      -0.00000001
N        2.08716219       3.61506966       1.47584559       0.00000004      -0.00000000      -0.00000001
40
Lattice="8.443525790875473 0.0 -2.9852370512746416 -4.221761832779167 7.312307019936595 -2.9852370512746416 -0.0 -0.0 8.955710091165356" Properties=species:S:1:pos:R:3:forces:R:3 energy=-1202675.32602132 free_energy=-1202675.3238903 pbc="T T T"
Zn      -0.75997668       2.02106967      -0.75317462       0.02101461      -0.02725735       0.05319240
Zn      -0.86168757       5.46742125      -1.04088502      -0.00140880       0.06208042      -0.00262714
Zn       6.25032944       0.17619165       1.94435466      -0.05307255      -0.03327068      -0.00385057
Zn       1.80571798       3.47996186      -0.72573486      -0.02309286       0.03276799      -0.04903439
Zn       0.01939695       3.30377797       2.23206485      -0.03287500      -0.00246002       0.05286167
Zn       2.23201065       0.17618397      -0.46545498      -0.05221442       0.03638260       0.00128638
Zn       0.74056813       1.98746670       5.21729564       0.01406487       0.02898095       0.05344642
Zn      -1.80571246       3.47996954       5.24474767      -0.01707384      -0.03654048      -0.05054955
Zn       0.84229708       5.50103928      -3.45069195      -0.00388470      -0.06308669      -0.00050546
Zn       5.36921899       1.63508384      -0.46544624       0.05698559       0.02594318      -0.00044887
Zn      -0.00000434       0.35237554       2.25951107       0.03959951       0.00252487      -0.04626879
Zn       3.05489764       1.66868681       1.94435775       0.05494303      -0.02947543      -0.00467988
Zn       6.02747642       3.83233748      -2.25951168       0.01707389       0.03654039       0.05054950
Zn       3.48119583       5.32484032      -2.23205965      -0.01406473      -0.02898082      -0.05344654
Zn       1.98975331       7.13612305       3.45069097       0.05221435      -0.03638251      -0.00128645
Zn       4.20236701       4.00852905       0.75317114       0.03287514       0.00246021      -0.05286155
Zn       2.41604598       3.83234516       3.71097085       0.02309283      -0.03276791       0.04903462
Zn      -2.02856549       7.13611537       1.04088133       0.05307251       0.03327081       0.00385015
Zn       5.08345153       1.84488577       4.02612101       0.00140837      -0.06208058       0.00262708
Zn       4.98174064       5.29123735       3.73841060      -0.02101465       0.02725727      -0.05319234
Zn       3.37946688       1.81126774       6.43592794       0.00388457       0.06308643       0.00050541
Zn      -1.14745504       5.67722318       3.45068223      -0.05698551      -0.02594319       0.00044882
Zn       4.22176829       6.95993148       0.72572492      -0.03959947      -0.00252494       0.04626902
Zn       1.16686632       5.64362021       1.04087823      -0.05494305       0.02947545       0.00467999
N       -0.96729600       5.33156048       1.36796365      -0.10746307       0.18528790       0.15181191
N       -2.99003348       5.48423026       4.60250913      -0.21396255      -0.00045863      -0.15197556
N        6.42078832       0.15266979       4.35320041      -0.10731225      -0.18565229       0.15120562
N        2.99003454       1.82807675       4.35320043       0.21445629      -0.00004476       0.15188583
N        4.13361946       3.50348372      -1.36796442       0.10754417       0.18569610      -0.15161524
N        3.07817904       5.63690005      -4.35320123       0.10690172      -0.18606626      -0.15127131
N        5.18905996       1.98074654       1.61727234       0.10746308      -0.18528791      -0.15181193
N        7.21179744       1.82807675      -1.61727314       0.21396256       0.00045868       0.15197555
N       -2.19902436       7.15963723      -1.36796442       0.10731229       0.18565227      -0.15120563
N        1.23172942       5.48423026      -1.36796445      -0.21445625       0.00004482      -0.15188578
N        0.08814450       3.80882330       4.35320041      -0.10754412      -0.18569611       0.15161525
N        1.14358492       1.67540697       7.33843722      -0.10690167       0.18606623       0.15127130
N       -2.11088092       3.65615351      -1.49261853       0.00000004      -0.00000002       0.00000003
N        4.22176290       0.00000000      -1.49261853      -0.00000001      -0.00000000       0.00000002
N        0.00000000       0.00000000       4.47785505       0.00000001      -0.00000001      -0.00000001
N        2.11088197       3.65615351       1.49261799       0.00000007      -0.00000000       0.00000002
20
Lattice="5.548680614599223 0.0 0.0 0.0 8.349650181196155 0.0 0.0 0.0 8.830772215108754" Properties=species:S:1:pos:R:3:forces:R:3 energy=-810209.183891041 free_energy=-810209.183889485 pbc="T T T"
I        2.95265271       3.99329535       4.60335792      -0.04396725      -0.59703354       0.65383630
I        0.17831240       4.35635484       4.22741429      -0.04396706       0.59703416      -0.65383606
I        0.17831240       0.18152975       0.18797182      -0.04396704       0.59703258       0.65383784
I        2.95265271       8.16812044       8.64280040      -0.04396712      -0.59703251      -0.65383784
N        2.11573411       5.14897042       1.68617414       4.49991712     -11.72821193      -3.09023850
N        4.89007442       3.20067976       7.14459808       4.49991711      11.72821184       3.09023845
N        4.89007442       7.37550485       6.10156025       4.49991711      11.72821184      -3.09023850
N        2.11573411       0.97414533       2.72921197       4.49991712     -11.72821192       3.09023846
N        2.19238913       3.34167194       8.29985736       4.23346201       8.00610532       9.76476274
N        4.96672944       5.00797824       0.53091485       4.23346200      -8.00610540      -9.76476276
N        4.96672944       0.83315315       3.88447125       4.23346200      -8.00610541       9.76476275
N        2.19238913       7.51649704       4.94630096       4.23346153       8.00610457      -9.76476169
N        4.62832651       5.62378163       1.29207443      -4.23768565       7.71299542       9.65583079
N        1.85398620       2.72586855       7.53869778      -4.23768564      -7.71299550      -9.65583082
N        1.85398620       6.90069364       5.70746054      -4.23768516      -7.71299476       9.65582972
N        4.62832651       1.44895654       3.12331167      -4.23768565       7.71299542      -9.65583081
N        1.74678014       6.08648585       1.93088367      -4.45172635      11.85966041       3.17717878
N        4.52112045       2.26316433       6.89988855      -4.45172636     -11.85966049      -3.17717882
N        4.52112045       6.43798942       6.34626978      -4.45172636     -11.85966050       3.17717879
N        1.74678014       1.91166076       2.48450244      -4.45172635      11.85966041      -3.17717881
20
Lattice="5.639658761807852 0.0 0.0 0.0 8.486554024846253 0.0 0.0 0.0 8.975564707298371" Properties=species:S:1:pos:R:3:forces:R:3 energy=-810211.47809059 free_energy=-810211.478070514 pbc="T T T"
I        3.00106545       4.05877084       4.67883622      -0.03894745      -0.51721885       0.57180245
I        0.18123607       4.42778318       4.29672849      -0.03894610       0.51721942      -0.57180254
I        0.18123607       0.18450617       0.19105387      -0.03894604       0.51721745       0.57180247
I        3.00106545       8.30204785       8.78451084      -0.03894758      -0.51721747      -0.57180236
N        2.15042444       5.23339478       1.71382125       3.20852215      -8.40378831      -2.21688832
N        4.97025382       3.25315924       7.26174345       3.20852303       8.40379037       2.21688882
N        4.97025382       7.49643626       6.20160361       3.20852234       8.40378870      -2.21688836
N        2.15042444       0.99011777       2.77396110       3.20852303      -8.40379045       2.21688882
N        2.22833633       3.39646319       8.43594478       3.02922871       5.78201000       7.03928557
N        5.04816571       5.09009083       0.53961992       3.02922819      -5.78200912      -7.03928448
N        5.04816571       0.84681382       3.94816243       3.02922871      -5.78201007       7.03928557
N        2.22833633       7.63974020       5.02740228       3.02922871       5.78201001      -7.03928558
N        4.70421420       5.71599116       1.31325975      -3.03623457       5.52632840       6.93698603
N        1.88438482       2.77056286       7.66230496      -3.03623510      -5.52632942      -6.93698712
N        1.88438482       7.01383987       5.80104210      -3.03623510      -5.52632941       6.93698711
N        4.70421420       1.47271415       3.17452261      -3.03623510       5.52632935      -6.93698712
N        1.77542098       6.18628205       1.96254313      -3.16256898       8.51700258       2.28901120
N        4.59525036       2.30027198       7.01302158      -3.16256985      -8.51700479      -2.28901169
N        4.59525036       6.54354899       6.45032548      -3.16256915      -8.51700311       2.28901123
N        1.77542098       1.94300503       2.52523923      -3.16256985       8.51700472      -2.28901170
20
Lattice="5.727792665468993 0.0 0.0 0.0 8.619177853065445 0.0 0.0 0.0 9.115830561781344" Properties=species:S:1:pos:R:3:forces:R:3 energy=-810213.093296802 free_energy=-810213.093158222 pbc="T T T"
I        3.04796468       4.12219938       4.75195485      -0.03516244      -0.44876327       0.50006414
I        0.18406834       4.49697847       4.36387571      -0.03516154       0.44876372      -0.50006411
I        0.18406834       0.18738955       0.19403957      -0.03516152       0.44876358       0.50006408
I        3.04796468       8.43178831       8.92179099      -0.03516246      -0.44876378      -0.50006401
N        2.18403025       5.31517978       1.74060404       2.08642600      -5.51802651      -1.45849850
N        5.04792658       3.30399807       7.37522653       2.08642646       5.51802757       1.45849884
N        5.04792658       7.61358700       6.29851932       2.08642601       5.51802648      -1.45849850
N        2.18403025       1.00559086       2.81731125       2.08642645      -5.51802760       1.45849884
N        2.26315971       3.44954150       8.56777771       1.98401393       3.85202972       4.67273815
N        5.12705604       5.16963635       0.54805285       1.98401393      -3.85202975      -4.67273816
N        5.12705604       0.86004743       4.00986243       1.98401393      -3.85202976       4.67273815
N        2.26315971       7.75913043       5.10596813       1.98401346       3.85202887      -4.67273717
N        4.77772942       5.80531795       1.33378274      -1.99261769       3.62834671       4.57637909
N        1.91383309       2.81385990       7.78204782      -1.99261770      -3.62834674      -4.57637910
N        1.91383309       7.12344883       5.89169803      -1.99261724      -3.62834590       4.57637810
N        4.77772942       1.49572903       3.22413254      -1.99261769       3.62834670      -4.57637910
N        1.80316641       6.28295832       1.99321282      -2.04266025       5.61573457       1.51906049
N        4.66706274       2.33621954       7.12261774      -2.04266069      -5.61573570      -1.51906086
N        4.66706274       6.64580846       6.55112810      -2.04266024      -5.61573460       1.51906049
N        1.80316641       1.97336939       2.56470246      -2.04266070       5.61573566      -1.51906086
20
Lattice="5.813294713801642 0.0 0.0 0.0 8.747841267476964 0.0 0.0 0.0 9.251907796207888" Properties=species:S:1:pos:R:3:forces:R:3 energy=-810214.154024422 free_energy=-810214.153434982 pbc="T T T"
I        3.09346340       4.18373382       4.82289001      -0.03184861      -0.38865697       0.43622422
I        0.18681604       4.56410745       4.42901779      -0.03185025       0.38865768      -0.43622418
I        0.18681604       0.19018682       0.19693611      -0.03185018       0.38865785       0.43622409
I        3.09346340       8.55765445       9.05497169      -0.03184851      -0.38865808      -0.43622421
N        2.21663252       5.39452252       1.76658703       1.11096752      -3.00970519      -0.79938501
N        5.12327988       3.35331874       7.48532077       1.11096751       3.00970513       0.79938503
N        5.12327988       7.72723938       6.39254093       1.11096751       3.00970512      -0.79938502
N        2.21663252       1.02060189       2.85936687       1.11096752      -3.00970518       0.79938502
N        2.29694319       3.50103479       8.69567385       1.07495644       2.17428952       2.61371101
N        5.20359055       5.24680648       0.55623395       1.07495643      -2.17428959      -2.61371101
N        5.20359055       0.87288585       4.06971995       1.07495676      -2.17429015       2.61371176
N        2.29694319       7.87495542       5.18218784       1.07495644       2.17428952      -2.61371100
N        4.84904933       5.89197727       1.35369289      -1.08467338       1.97809760       2.52293210
N        1.94240197       2.85586400       7.89821491      -1.08467337      -1.97809767      -2.52293209
N        1.94240197       7.22978463       5.97964678      -1.08467337      -1.97809767       2.52293211
N        4.84904933       1.51805663       3.27226101      -1.08467371       1.97809818      -2.52293284
N        1.83008331       6.37674764       2.02296665      -1.06940118       3.09443621       0.85060934
N        4.73673067       2.37109362       7.22894115      -1.06940119      -3.09443626      -0.85060933
N        4.73673067       6.74501426       6.64892055      -1.06940119      -3.09443627       0.85060934
N        1.83008331       2.00282701       2.60298725      -1.06940118       3.09443621      -0.85060933
20
Lattice="5.896353002761302 0.0 0.0 0.0 8.872827314725237 0.0 0.0 0.0 9.384095766885025" Properties=species:S:1:pos:R:3:forces:R:3 energy=-810214.760973911 free_energy=-810214.759260177 pbc="T T T"
I        3.13766170       4.24350952       4.89179774      -0.02868463      -0.33419704       0.37738739
I        0.18948520       4.62931780       4.49229802      -0.02868497       0.33419717      -0.37738746
I        0.18948520       0.19290414       0.19974986      -0.02868484       0.33419704       0.37738730
I        3.13766170       8.67992318       9.18434591      -0.02868480      -0.33419708      -0.37738749
N        2.24830298       5.47159754       1.79182740       0.26243871      -0.82614619      -0.22620870
N        5.19647948       3.40122977       7.59226837       0.26243919       0.82614739       0.22620905
N        5.19647948       7.83764343       6.48387528       0.26243919       0.82614739      -0.22620902
N        2.24830298       1.03518389       2.90022048       0.26243932      -0.82614772       0.22620913
N        2.32976110       3.55105633       8.81991455       0.28379536       0.71403983       0.82015757
N        5.27793760       5.32177099       0.56418122       0.28379565      -0.71404037      -0.82015820
N        5.27793760       0.88535733       4.12786666       0.28379572      -0.71404050       0.82015838
N        2.32976110       7.98746998       5.25622910       0.28379565       0.71404036      -0.82015820
N        4.91833082       5.97615974       1.37303397      -0.29456284       0.54153434       0.73535211
N        1.97015432       2.89666757       8.01106180      -0.29456255      -0.54153382      -0.73535142
N        1.97015432       7.33308123       6.06508185      -0.29456284      -0.54153435       0.73535211
N        4.91833082       1.53974609       3.31901392      -0.29456291       0.54153447      -0.73535223
N        1.85623089       6.46785635       2.05187008      -0.22298671       0.90062550       0.26948203
N        4.80440739       2.40497097       7.33222569      -0.22298719      -0.90062673      -0.26948232
N        4.80440739       6.84138463       6.74391796      -0.22298719      -0.90062673       0.26948235
N        1.85623089       2.03144269       2.64017781      -0.22298732       0.90062703      -0.26948240
20
Lattice="5.977135 0.0 0.0 0.0 8.994388 0.0 0.0 0.0 9.512661" Properties=species:S:1:pos:R:3:forces:R:3 energy=-810214.996263092 free_energy=-810214.992559979 pbc="T T T"
I        3.18064871       4.30164701       4.95881700      -0.02583662      -0.28351281       0.32162462
I        0.19208121       4.69274099       4.55384400      -0.02583428       0.28351275      -0.32162462
I        0.19208121       0.19554699       0.20248650      -0.02583419       0.28351279       0.32162471
I        3.18064871       8.79884101       9.31017450      -0.02583658      -0.28351280      -0.32162459
N        2.27910548       5.54656025       1.81637603      -0.47708064       1.07805684       0.27287483
N        5.26767298       3.44782775       7.69628497      -0.47708064      -1.07805683      -0.27287485
N        5.26767298       7.94502175       6.57270653      -0.47708064      -1.07805683       0.27287483
N        2.27910548       1.04936625       2.93995447      -0.47708064       1.07805684      -0.27287485
N        2.36167960       3.59970698       8.94075031      -0.40530667      -0.55864698      -0.74399959
N        5.35024710       5.39468102       0.57191069      -0.40530667       0.55864699       0.74399958
N        5.35024710       0.89748702       4.18441981      -0.40530667       0.55864699      -0.74399959
N        2.36167960       8.09690098       5.32824119      -0.40530667      -0.55864698       0.74399958
N        4.98571359       6.05803512       1.39184499       0.39351390      -0.71150276      -0.82265760
N        1.99714609       2.93635288       8.12081601       0.39351390       0.71150277       0.82265758
N        1.99714609       7.43354688       6.14817549       0.39351390       0.71150277      -0.82265760
N        4.98571359       1.56084112       3.36448551       0.39351390      -0.71150276       0.82265758
N        1.88166187       6.55646813       2.07998138       0.51470883      -1.01224681      -0.23711878
N        4.87022937       2.43791987       7.43267962       0.51470883       1.01224681       0.23711877
N        4.87022937       6.93511387       6.83631188       0.51470883       1.01224681      -0.23711878
N        1.88166187       2.05927413       2.67634912       0.51470883      -1.01224681       0.23711876
20
Lattice="6.055790533152716 0.0 0.0 0.0 9.112748783807358 0.0 0.0 0.0 9.637841947503453" Properties=species:S:1:pos:R:3:forces:R:3 energy=-810214.926724208 free_energy=-810214.92031505 pbc="T T T"
I        3.22250415       4.35825412       5.02407208      -0.02362566      -0.23533206       0.26820292
I        0.19460888       4.75449466       4.61376987      -0.02362586       0.23533205      -0.26820287
I        0.19460888       0.19812027       0.20515110      -0.02362631       0.23532784       0.26819872
I        3.22250415       8.91462851       9.43269085      -0.02362621      -0.23532791      -0.26819874
N        2.30909715       5.61954968       1.84027846      -1.12346530       2.74288739       0.70914224
N        5.33699242       3.49319911       7.79756349      -1.12346595      -2.74288900      -0.70914269
N        5.33699242       8.04957350       6.65919943      -1.12346603      -2.74289414       0.70913617
N        2.30909715       1.06317528       2.97864252      -1.12346586       2.74289378      -0.70913607
N        2.39275790       3.64707698       9.05840525      -1.00683673      -1.67114172      -2.11075712
N        5.42065316       5.46567181       0.57943669      -1.00683663       1.67114158       2.11075698
N        5.42065316       0.90929741       4.23948428      -1.00683688       1.67114586      -2.11075557
N        2.39275790       8.20345137       5.39835767      -1.00683652      -1.67114511       2.11075467
N        5.05132261       6.13775525       1.41016084       0.99411623      -1.80672350      -2.18371495
N        2.02342734       2.97499353       8.22768111       0.99411633       1.80672366       2.18371508
N        2.02342734       7.53136793       6.22908181       0.99411610       1.80671677      -2.18371997
N        5.05132261       1.58138086       3.40876013       0.99411646      -1.80671749       2.18372086
N        1.90642342       6.64274734       2.10735269       1.15981177      -2.68447958      -0.67995389
N        4.93431868       2.47000144       7.53048925       1.15981242       2.68448119       0.67995433
N        4.93431868       7.02637583       6.92627367       1.15981241       2.68447362      -0.67996144
N        1.90642342       2.08637295       2.71156828       1.15981223      -2.68447323       0.67996134
20
Lattice="6.132454248023652 0.0 0.0 0.0 9.228112281046517 0.0 0.0 0.0 9.759852899333698" Properties=species:S:1:pos:R:3:forces:R:3 energy=-810214.606847099 free_energy=-810214.597371632 pbc="T T T"
I        3.26329967       4.41342775       5.08767468      -0.02199881      -0.18982523       0.21765339
I        0.19707255       4.81468453       4.67217822      -0.02199988       0.18982524      -0.21765347
I        0.19707255       0.20062839       0.20774823      -0.02199898       0.18985260       0.21768156
I        3.26329967       9.02748389       9.55210467      -0.02199780      -0.18985272      -0.21768161
N        2.33832933       5.69069077       1.86357559      -1.69003139       4.20166361       1.09151932
N        5.40455645       3.53742151       7.89627731      -1.69003121      -4.20166327      -1.09151922
N        5.40455645       8.15147765       6.74350204      -1.69003137      -4.20165856       1.09152664
N        2.33832933       1.07663463       3.01635086      -1.69003155       4.20165890      -1.09152671
N        2.42304919       3.69324741       9.17308079      -1.53335807      -2.64582491      -3.30771977
N        5.48927631       5.53486487       0.58677211      -1.53335807       2.64582492       3.30771979
N        5.48927631       0.92080873       4.29315434      -1.53335802       2.64582102      -3.30772198
N        2.42304919       8.30730355       5.46669856      -1.53335803      -2.64582101       3.30772200
N        5.11527019       6.21545660       1.42801287       1.52004186      -2.76641407      -3.37594921
N        2.04904307       3.01265568       8.33184003       1.52004186       2.76641409       3.37594923
N        2.04904307       7.62671182       6.30793932       1.52004196       2.76642094      -3.37594301
N        5.11527019       1.60140046       3.45191358       1.52004196      -2.76642092       3.37594302
N        1.93055792       6.72684168       2.13403088       1.72534659      -4.15002429      -1.06781810
N        4.99678505       2.50127060       7.62582202       1.72534642       4.15002397       1.06781803
N        4.99678505       7.11532674       7.01395733       1.72534617       4.15003150      -1.06780993
N        1.93055792       2.11278554       2.74589557       1.72534634      -4.15003182       1.06781003
20
Lattice="6.207247646693561 0.0 0.0 0.0 9.340661327952072 0.0 0.0 0.0 9.878887227081806" Properties=species:S:1:pos:R:3:forces:R:3 energy=-810214.081128394 free_energy=-810214.068552795 pbc="T T T"
I        3.30309993       4.46725535       5.14972560      -0.02050705      -0.14770372       0.17063909
I        0.19947611       4.87340598       4.72916162      -0.02050694       0.14770387      -0.17063911
I        0.19947611       0.20307532       0.21028199      -0.02050589       0.14773411       0.17067036
I        3.30309993       9.13758601       9.66860524      -0.02050597      -0.14773435      -0.17067043
N        2.36684835       5.76009628       1.88630436      -2.18714361       5.48049222       1.42728200
N        5.47047218       3.58056505       7.99258286      -2.18714353      -5.48049202      -1.42728188
N        5.47047218       8.25089572       6.82574798      -2.18714390      -5.48048557       1.42729230
N        2.36684835       1.08976561       3.05313925      -2.18714368       5.48048498      -1.42729219
N        2.45260148       3.73829145       9.28495865      -1.99460554      -3.49991164      -4.35713281
N        5.55622530       5.60236988       0.59392858      -1.99460555       3.49991165       4.35713282
N        5.55622530       0.93203921       4.34551504      -1.99460571       3.49990639      -4.35713643
N        2.45260148       8.40862212       5.53337219      -1.99460548      -3.49990597       4.35713588
N        5.17765768       6.29126233       1.44542938       1.98109443      -3.60714774      -4.42054683
N        2.07403386       3.04939900       8.43345785       1.98109443       3.60714774       4.42054685
N        2.07403386       7.71972967       6.38487299       1.98109454       3.60715750      -4.42053829
N        5.17765768       1.62093166       3.49401423       1.98109475      -3.60715789       4.42053884
N        1.95410363       6.80888442       2.16005821       2.22116124      -5.43452106      -1.40814797
N        5.05772746       2.53177691       7.71882902       2.22116116       5.43452087       1.40814789
N        5.05772746       7.20210757       7.09950182       2.22116126       5.43453290      -1.40813693
N        1.95410363       2.13855375       2.77938540       2.22116105      -5.43453229       1.40813685
20
Lattice="6.280280789650572 0.0 0.0 0.0 9.450561543459138 0.0 0.0 0.0 9.99512009294724" Properties=species:S:1:pos:R:3:forces:R:3 energy=-810213.386260931 free_energy=-810213.370724989 pbc="T T T"
I        3.34196350       4.51981611       5.21031617      -0.01911042      -0.10979331       0.12826406
I        0.20182310       4.93074543       4.78480392      -0.01911072       0.10979256      -0.12826407
I        0.20182310       0.20546466       0.21275612      -0.01911078       0.10979426       0.12826519
I        3.34196350       9.24509688       9.78236397      -0.01911041      -0.10979425      -0.12826536
N        2.39469618       5.82786833       1.90849822      -2.62359939       6.60358979       1.72192009
N        5.53483658       3.62269321       8.08662188      -2.62359962      -6.60359013      -1.72192024
N        5.53483658       8.34797398       6.90605826      -2.62359963      -6.60359005       1.72192041
N        2.39469618       1.10258756       3.08906183      -2.62359940       6.60358971      -1.72192021
N        2.48145826       3.78227539       9.39420348      -2.40003604      -4.25025786      -5.27957040
N        5.62159866       5.66828616       0.60091661      -2.40003619       4.25025811       5.27957061
N        5.62159866       0.94300538       4.39664343      -2.40003634       4.25025838      -5.27957099
N        2.48145826       8.50755616       5.59847666      -2.40003603      -4.25025778       5.27957046
N        5.23857689       6.36528397       1.46243599       2.38659278      -4.34592201      -5.33843797
N        2.09843650       3.08527758       8.53268410       2.38659263       4.34592195       5.33843780
N        2.09843650       7.81055835       6.45999604       2.38659263       4.34592208      -5.33843766
N        5.23857689       1.64000320       3.53512405       2.38659294      -4.34592250       5.33843823
N        1.97709520       6.88899629       2.18547299       2.65615339      -6.56243409      -1.70657746
N        5.11723559       2.56156525       7.80964710       2.65615362       6.56243462       1.70657766
N        5.11723559       7.28684602       7.18303304       2.65615362       6.56243476      -1.70657748
N        1.97709520       2.16371552       2.81208706       2.65615338      -6.56243424       1.70657732
20
Lattice="6.351653726911306 0.0 0.0 0.0 9.557963482753248 0.0 0.0 0.0 10.108710727379226" Properties=species:S:1:pos:R:3:forces:R:3 energy=-810212.575299614 free_energy=-810212.546214516 pbc="T T T"
I        3.37994361       4.57118206       5.26952938      -0.02575442       0.25703554      -0.27952608
I        0.20411674       4.98678143       4.83918135      -0.02575449      -0.25703544       0.27952601
I        0.20411674       0.20779968       0.21517401      -0.02575354      -0.25702869      -0.27951807
I        3.37994361       9.35016380       9.89353671      -0.02575346       0.25702852       0.27951815
N        2.42191097       5.89409978       1.93018755      -3.00328469       7.59830376       1.97816242
N        5.59773783       3.66386370       8.17852317      -3.00328463      -7.59830360      -1.97816231
N        5.59773783       8.44284544       6.98454292      -3.00328459      -7.59830903       1.97815735
N        2.42191097       1.11511804       3.12416781      -3.00328459       7.59830904      -1.97815735
N        2.50965906       3.82525947       9.50096493      -2.75447648      -4.90644365      -6.08818784
N        5.68548593       5.73270401       0.60774580      -2.75447663       4.90644379       6.08818801
N        5.68548593       0.95372227       4.44660957      -2.75447696       4.90644416      -6.08818810
N        2.50965906       8.60424121       5.66210116      -2.75447682      -4.90644402       6.08818793
N        5.29811127       6.43762293       1.47905601       2.74287711      -4.99139158      -6.14563436
N        2.12228441       3.12034055       8.62965472       2.74287696       4.99139145       6.14563419
N        2.12228441       7.89932229       6.53341137       2.74287432       4.99138332      -6.14564250
N        5.29811127       1.65864119       3.57529936       2.74287447      -4.99138345       6.14564267
N        1.99956411       6.96728704       2.21031004       3.04063710      -7.55856009      -1.97155117
N        5.17539097       2.59067644       7.89840069       3.04063705       7.55855995       1.97155106
N        5.17539097       7.36965818       7.26466540       3.04064215       7.55855568      -1.97156121
N        1.99956411       2.18830530       2.84404533       3.04064215      -7.55855567       1.97156121
32
Lattice="-6.5338903356553715 6.5338903356553715 3.8002043124727236 6.5338903356553715 -6.5338903356553715 3.8002043124727236 6.5338903356553715 6.5338903356553715 -3.8002043124727236" Properties=species:S:1:pos:R:3:forces:R:3 energy=-606959.352017383 free_energy=-606959.352017383 pbc="T T T"
Br       5.02938368       5.01464322       0.51151510       1.82660015      -2.99257637      -1.23883748
Br       1.50451319      11.54854010       0.51151131      -1.82679849      -2.99287586      -1.23899984
Br      -1.51924058       8.03840352       2.41161346      -2.99287511      -1.82683866      -1.23898264
Br       5.01464322      -1.50450666       2.41161726      -2.99256814       1.82663491      -1.23882010
Br       1.50451319       1.51924058       4.31171562      -1.82680254       2.99287860      -1.23899981
Br       5.02938368      -5.01465629       4.31171941       1.82691016       2.99299895      -1.23904768
Br       1.51923404       5.02938368       2.41161726       2.99299898       1.82694347      -1.23903594
Br       8.05313091       1.50451319       2.41161346       2.99287702      -1.82684339      -1.23898545
N        4.03984559       6.31846143       1.22156428      -3.61014200      -5.30704411       3.87116096
N        2.49403821      -0.21543543       1.22156808       3.61014840      -5.30620559       3.87110855
N        6.31845491       2.49403821      -0.67853408      -5.30620868       3.61014464       3.87111901
N        6.31846143      -2.49404475       3.12166644      -5.30702847      -3.61014658       3.87116956
N        2.49403821       0.21543543       5.02177239       3.61014913       5.30620515       3.87110654
N       10.57373592       0.21544196       1.22156428      -3.61007039       5.30547243       3.87088142
N        0.21544196       4.03984559       3.12166644       5.30546806      -3.61007539       3.87088849
N        6.74932576       2.49403821       3.12167023       5.30618558       3.61014528       3.87111271
N        4.34933637       7.34911077       0.80897230      -0.56338436      -2.99888150       0.83442199
N        2.18455396       0.81522043       0.80897230       0.56356714      -2.99932401       0.83463003
N        7.34911077       2.18455396      -1.09112986      -2.99933241       0.56352749       0.83464382
N        7.34911077      -2.18455396       2.70907445      -2.99886859      -0.56335469       0.83443178
N        2.18455396      -0.81522043       4.60917661       0.56357034       2.99936023       0.83464246
N       10.88322671      -0.81522043       0.80897230      -0.56374550       2.99986298       0.83486980
N       -0.81522043       4.34933637       2.70907445       2.99985139      -0.56370895       0.83487516
N        5.71866990       2.18455396       2.70907445       2.99931564       0.56352302       0.83463932
N        4.53908055       8.35619235       0.50798852       2.27695003      11.23179550      -3.46678521
N        1.99480978       1.82230202       0.50798852      -2.27689741      11.23171756      -3.46676335
N        1.82230202       8.52870012       2.40809067      11.23170256      -2.27689649      -3.46674422
N        8.35619235      -1.99480978       2.40809067      11.23178567       2.27693558      -3.46676686
N        1.99480978      -1.82230202       4.30819283      -2.27690159     -11.23171554      -3.46676239
N        4.53908055       4.71158832       4.30819283       2.27690036     -11.23165529      -3.46671835
N       -1.82230202       4.53908055       2.40809067     -11.23163883       2.27689696      -3.46670214
N        4.71158832       1.99480978       2.40809067     -11.23171812      -2.27690033      -3.46675013
32
Lattice="-6.6410223329879 6.6410223329879 3.862513818349371 6.6410223329879 -6.6410223329879 3.862513818349371 6.6410223329879 6.6410223329879 -3.862513818349371" Properties=species:S:1:pos:R:3:forces:R:3 energy=-606962.763935853 free_energy=-606962.763935853 pbc="T T T"
Br       5.11184724       5.09686510       0.51990209       1.40992592      -2.29022731      -0.96311862
Br       1.52918172      11.73789408       0.51989823      -1.41009269      -2.29047971      -0.96325496
Br      -1.54415059       8.17020405       2.45115514      -2.29047554      -1.41012190      -0.96324694
Br       5.09686510      -1.52917509       2.45115900      -2.29022291       1.40995607      -0.96311045
Br       1.52918172       1.54415059       4.38241205      -1.41009621       2.29048282      -0.96326038
Br       5.11184724      -5.09687839       4.38241590       1.41019148       2.29059686      -0.96330258
Br       1.54414394       5.11184724       2.45115900       2.29059243       1.41022016      -0.96329451
Br       8.18517292       1.52918172       2.45115514       2.29047907      -1.41012658      -0.96325193
N        4.10608434       6.42206118       1.24159348      -2.72757818      -3.87713445       2.90964752
N        2.53493135      -0.21896778       1.24159734       2.72759246      -3.87640359       2.90959845
N        6.42205455       2.53493135      -0.68965957      -3.87639452       2.72759275       2.90960553
N        6.42206118      -2.53493799       3.17285039      -3.87712506      -2.72757830       2.90965465
N        2.53493135       0.21896778       5.10411116       2.72759295       3.87638853       2.90959287
N       10.74710667       0.21897443       1.24159348      -2.72751455       3.87574747       2.90940130
N        0.21897443       4.10608434       3.17285039       3.87573804      -2.72751486       2.90940854
N        6.85999012       2.53493135       3.17285425       3.87637919       2.72759335       2.90960013
N        4.42064964       7.46960941       0.82223650      -0.39240020      -2.16569854       0.58184087
N        2.22037269       0.82858708       0.82223650       0.39255430      -2.16611157       0.58203023
N        7.46960941       2.22037269      -1.10902041      -2.16609930       0.39252221       0.58203556
N        7.46960941      -2.22037269       2.75349340      -2.16568772      -0.39236830       0.58184670
N        2.22037269      -0.82858708       4.68475031       0.39254851       2.16610216       0.58202712
N       11.06167198      -0.82858708       0.82223650      -0.39270601       2.16654585       0.58222242
N       -0.82858708       4.42064964       2.75349340       2.16653496      -0.39267414       0.58222823
N        5.81243526       2.22037269       2.75349340       2.16608936       0.39251635       0.58203237
N        4.61350494       8.49320346       0.51631768       1.66240459       8.23377883      -2.52839993
N        2.02751740       1.85218113       0.51631768      -1.66235746       8.23369528      -2.52837598
N        1.85218113       8.66853973       2.44757459       8.23368524      -1.66235239      -2.52836243
N        8.49320346      -2.02751740       2.44757459       8.23376995       1.66239979      -2.52838672
N        2.02751740      -1.85218113       4.37883149      -1.66236482      -8.23370546      -2.52838001
N        4.61350494       4.78884120       4.37883149       1.66236486      -8.23364179      -2.52833696
N       -1.85218113       4.61350494       2.44757459      -8.23363333       1.66236008      -2.52832386
N        4.78884120       2.02751740       2.44757459      -8.23369482      -1.66235963      -2.52836623
32
Lattice="-6.744805070069568 6.744805070069568 3.9228753464371273 6.744805070069568 -6.744805070069568 3.9228753464371273 6.744805070069568 6.744805070069568 -3.9228753464371273" Properties=species:S:1:pos:R:3:forces:R:3 energy=-606965.133428843 free_energy=-606965.133428843 pbc="T T T"
Br       5.19173276       5.17651649       0.52802687       1.05662414      -1.69310877      -0.73065925
Br       1.55307905      11.92132830       0.52802295      -1.05678515      -1.69334593      -0.73078353
Br      -1.56828184       8.29788412       2.48946062      -1.69333936      -1.05680939      -0.73078030
Br       5.17651649      -1.55307231       2.48946454      -1.69310275       1.05664786      -0.73065626
Br       1.55307905       1.56828184       4.45089830      -1.05678863       1.69334679      -0.73078486
Br       5.19173276      -5.17652998       4.45090221       1.05686250       1.69344420      -0.73082373
Br       1.56827509       5.19173276       2.48946454       1.69343773       1.05688603      -0.73082077
Br       8.31308691       1.55307905       2.48946062       1.69334039      -1.05681161      -0.73078204
N        4.17025227       6.52242210       1.26099652      -1.98453087      -2.65295717       2.09725077
N        2.57454605      -0.22238971       1.26100043       1.98454801      -2.65231380       2.09720606
N        6.52241536       2.57454605      -0.70043724      -2.65230534       1.98454806       2.09721250
N        6.52242210      -2.57455280       3.22243419      -2.65294889      -1.98453104       2.09725732
N        2.57454605       0.22238971       5.18387578       1.98454845       2.65230579       2.09720252
N       10.91505734       0.22239646       1.26099652      -1.98447620       2.65174172       2.09703942
N        0.22239646       4.17025227       3.22243419       2.65173345      -1.98447640       2.09704600
N        6.96719478       2.57454605       3.22243811       2.65229755       1.98454855       2.09720906
N        4.48973345       7.58634091       0.83508602      -0.23868053      -1.42438683       0.35464046
N        2.25507162       0.84153584       0.83508602       0.23879917      -1.42473772       0.35480252
N        7.58634091       2.25507162      -1.12635166      -1.42472998       0.23877265       0.35480808
N        7.58634091      -2.25507162       2.79652369      -1.42437867      -0.23865392       0.35464585
N        2.25507162      -0.84153584       4.75796136       0.23879704       1.42474295       0.35480355
N       11.23453852      -0.84153584       0.83508602      -0.23894646       1.42513453       0.35497143
N       -0.84153584       4.48973345       2.79652369       1.42512636      -0.23891983       0.35497681
N        5.90326923       2.25507162       2.79652369       1.42473445       0.23877037       0.35480882
N        4.68560260       8.62593121       0.52438644       1.13432333       5.65141798      -1.72125479
N        2.05920247       1.88112614       0.52438644      -1.13428386       5.65134370      -1.72123188
N        1.88112614       8.80400754       2.48582412       5.65133328      -1.13428079      -1.72122267
N        8.62593121      -2.05920247       2.48582412       5.65140750       1.13432022      -1.72124553
N        2.05920247      -1.88112614       4.44726179      -1.13428704      -5.65134983      -1.72123423
N        4.68560260       4.86367893       4.44726179       1.13428153      -5.65128290      -1.72119287
N       -1.88112614       4.68560260       2.48582412      -5.65127223       1.13427841      -1.72118358
N        4.86367893       2.05920247       2.48582412      -5.65133893      -1.13428386      -1.72122487
32
Lattice="-6.845488646235321 6.845488646235321 3.9814343580955147 6.845488646235321 -6.845488646235321 3.9814343580955147 6.845488646235321 6.845488646235321 -3.9814343580955147" Properties=species:S:1:pos:R:3:forces:R:3 energy=-606966.662198599 free_energy=-606966.662198599 pbc="T T T"
Br       5.26923274       5.25378932       0.53590903       0.75090907      -1.17801316      -0.53128699
Br       1.57626275      12.09928481       0.53590505      -0.75104397      -1.17821470      -0.53139719
Br      -1.59169248       8.42175139       2.52662223      -1.17820198      -0.75106426      -0.53140470
Br       5.25378932      -1.57625591       2.52662621      -1.17800009       0.75092918      -0.53129513
Br       1.57626275       1.59169248       4.51733941      -0.75104435       1.17821353      -0.53139918
Br       5.26923274      -5.25380301       4.51734339       0.75111932       1.17831449      -0.53143779
Br       1.59168563       5.26923274       2.52662621       1.17830161       0.75113936      -0.53144447
Br       8.43718113       1.57626275       2.52662223       1.17820130      -0.75106352      -0.53140660
N        4.23250402       6.61978604       1.27982013      -1.35585131      -1.60427578       1.40748296
N        2.61297778      -0.22570945       1.27982411       1.35588198      -1.60370712       1.40743948
N        6.61977920       2.61297778      -0.71089307      -1.60369960       1.35588189       1.40744537
N        6.61978604      -2.61298463       3.27053731      -1.60426797      -1.35585118       1.40748874
N        2.61297778       0.22570945       5.26125847       1.35588367       1.60369439       1.40743663
N       11.07799267       0.22571629       1.27982013      -1.35580458       1.60319765       1.40729805
N        0.22571629       4.23250402       3.27053731       1.60318977      -1.35580444       1.40730383
N        7.07119809       2.61297778       3.27054129       1.60368729       1.35588363       1.40744260
N        4.55675428       7.69958658       0.84755182      -0.10130966      -0.76119758       0.14980586
N        2.28873437       0.85409793       0.84755182       0.10141285      -0.76151389       0.14994729
N        7.69958658       2.28873437      -1.14316535      -0.76150747       0.10139064       0.14995199
N        7.69958658      -2.28873437       2.83826900      -0.76119095      -0.10128740       0.14981059
N        2.28873437      -0.85409793       4.82898618       0.10140652       0.76149759       0.14994393
N       11.40224293      -0.85409793       0.84755182      -0.10152674       0.76180810       0.15007396
N       -0.85409793       4.55675428       2.83826900       0.76180105      -0.10150444       0.15007859
N        5.99139072       2.28873437       2.83826900       0.76149059       0.10138418       0.14994852
N        4.75554727       8.75469543       0.53221426       0.67926495       3.42103512      -1.02600766
N        2.08994137       1.90920679       0.53221426      -0.67922178       3.42095161      -1.02598415
N        1.90920679       8.93543002       2.52293144       3.42094132      -0.67921972      -1.02597615
N        8.75469543      -2.08994137       2.52293144       3.42102430       0.67926280      -1.02599953
N        2.08994137      -1.90920679       4.51364862      -0.67922871      -3.42096141      -1.02598604
N        4.75554727       4.93628186       4.51364862       0.67923152      -3.42090822      -1.02595152
N       -1.90920679       4.75554727       2.52293144      -3.42089704       0.67922930      -1.02594328
N        4.93628186       2.08994137       2.52293144      -3.42095091      -0.67922663      -1.02597802
32
Lattice="-6.943294555283628 6.943294555283628 4.0383196772938525 6.943294555283628 -6.943294555283628 4.0383196772938525 6.943294555283628 6.943294555283628 -4.0383196772938525" Properties=species:S:1:pos:R:3:forces:R:3 energy=-606967.510889451 free_energy=-606967.510889451 pbc="T T T"
Br       5.34451766       5.32885359       0.54356591       0.48660869      -0.73221641      -0.35878047
Br       1.59878383      12.27215509       0.54356187      -0.48673779      -0.73240362      -0.35887760
Br      -1.61443402       8.54207839       2.56272171      -0.73237295      -0.48675458      -0.35890920
Br       5.32885359      -1.59877689       2.56272574      -0.73218567       0.48662509      -0.35881193
Br       1.59878383       1.61443402       4.58188155      -0.48673978       0.73240462      -0.35887934
Br       5.34451766      -5.32886748       4.58188558       0.48679504       0.73248784      -0.35891179
Br       1.61442707       5.34451766       2.56272574       0.73245716       0.48681190      -0.35894332
Br       8.55772857       1.59878383       2.56272171       0.73237413      -0.48675646      -0.35891102
N        4.29297653       6.71436719       1.29810575      -0.82073821      -0.70393775       0.81835483
N        2.65031108      -0.22893430       1.29810978       0.82077198      -0.70344050       0.81831753
N        6.71436025       2.65031108      -0.72105005      -0.70343270       0.82077148       0.81832268
N        6.71436719      -2.65031802       3.31726559      -0.70393050      -0.82073734       0.81835996
N        2.65031108       0.22893430       5.33642946       0.82077371       0.70343008       0.81831436
N       11.23627109       0.22894125       1.29810575      -0.82069923       0.70299336       0.81819774
N        0.22894125       4.29297653       3.31726559       0.70298557      -0.82069865       0.81820283
N        7.17222886       2.65031108       3.31726962       0.70342252       0.82077284       0.81831944
N        4.62185957       7.80959553       0.85966134       0.02014050      -0.16633856      -0.03316141
N        2.32143499       0.86630098       0.85966134      -0.02006240      -0.16661238      -0.03303847
N        7.80959553       2.32143499      -1.15949849      -0.16660670      -0.02008077      -0.03303429
N        7.80959553      -2.32143499       2.87882118      -0.16633366       0.02015896      -0.03315705
N        2.32143499      -0.86630098       4.89798102      -0.02006837       0.16659979      -0.03304276
N       11.56515412      -0.86630098       0.85966134       0.01995273       0.16687852      -0.03292939
N       -0.86630098       4.62185957       2.87882118       0.16687406       0.01997084      -0.03292483
N        6.07699358       2.32143499       2.87882118       0.16659421      -0.02008677      -0.03303853
N        4.82349284       8.87977941       0.53981835       0.28656707       1.48857239      -0.42640834
N        2.11980171       1.93648485       0.53981835      -0.28652904       1.48849782      -0.42638524
N        1.93648485       9.06309627       2.55897819       1.48848712      -0.28652694      -0.42637837
N        8.87977941      -2.11980171       2.55897819       1.48856209       0.28656513      -0.42640161
N        2.11980171      -1.93648485       4.57813803      -0.28653391      -1.48850458      -0.42638748
N        4.82349284       5.00680970       4.57813803       0.28653092      -1.48844264      -0.42635148
N       -1.93648485       4.82349284       2.55897819      -1.48843319       0.28652908      -0.42634498
N        5.00680970       2.11980171       2.55897819      -1.48849337      -0.28653181      -0.42638049
32
Lattice="-7.03842 7.03842 4.093646 7.03842 -7.03842 4.093646 7.03842 7.03842 -4.093646" Properties=species:S:1:pos:R:3:forces:R:3 energy=-606967.807815121 free_energy=-606967.807815121 pbc="T T T"
Br       5.41773933       5.40186066       0.55101294       0.25878146      -0.34629531      -0.20939651
Br       1.62068770      12.44028770       0.55100885      -0.25889800      -0.34646107      -0.20948074
Br      -1.63655230       8.65910770       2.59783185      -0.34643381      -0.25890733      -0.20952239
Br       5.40186066      -1.62068067       2.59783594      -0.34626770       0.25879067      -0.20943856
Br       1.62068770       1.63655230       4.64465485      -0.25890065       0.34646189      -0.20948325
Br       5.41773933      -5.40187474       4.64465894       0.25894481       0.34653790      -0.20951151
Br       1.63654526       5.41773933       2.59783594       0.34650976       0.25895426      -0.20955292
Br       8.67497230       1.62068770       2.59783185       0.34643478      -0.25891025      -0.20952417
N        4.35179174       6.80635625       1.31589023      -0.36334105       0.06960913       0.31281993
N        2.68662122      -0.23207078       1.31589432       0.36337934       0.07004521       0.31278754
N        6.80634922       2.68662122      -0.73092868       0.07005206       0.36337836       0.31279205
N        6.80635625      -2.68662826       3.36271323       0.06961599      -0.36334008       0.31282444
N        2.68662122       0.23207078       5.40954032       0.36338065      -0.07005167       0.31278520
N       11.39021174       0.23207782       1.31589023      -0.36331040      -0.07043217       0.31268793
N        0.23207782       4.35179174       3.36271323      -0.07043901      -0.36330943       0.31269244
N        7.27049078       2.68662122       3.36271732      -0.07005851       0.36337967       0.31278971
N        4.68518058       7.91658959       0.87143899       0.12729773       0.36885409      -0.19646243
N        2.35323942       0.87816959       0.87143899      -0.12724338       0.36862648      -0.19635978
N        7.91658959       2.35323942      -1.17538401       0.36862683      -0.12726234      -0.19635928
N        7.91658959      -2.35323942       2.91826199       0.36885450       0.12731670      -0.19646195
N        2.35323942      -0.87816959       4.96508499      -0.12724731      -0.36863273      -0.19636213
N       11.72360058      -0.87816959       0.87143899       0.12713972      -0.36839460      -0.19626858
N       -0.87816959       4.68518058       2.91826199      -0.36839496       0.12715868      -0.19626808
N        6.16025041       2.35323942       2.91826199      -0.36863306      -0.12726626      -0.19636163
N        4.88957630       9.00143534       0.54721404      -0.05426002      -0.19002400       0.09305174
N        2.14884370       1.96301534       0.54721404       0.05429356      -0.19009372       0.09307456
N        1.96301534       9.18726370       2.59403704      -0.19010301       0.05429499       0.09308015
N        9.00143534      -2.14884370       2.59403704      -0.19003328      -0.05426144       0.09305732
N        2.14884370      -1.96301534       4.64086004       0.05429095       0.19008850       0.09307294
N        4.88957630       5.07540466       4.64086004      -0.05429660       0.19015148       0.09310693
N       -1.96301534       4.88957630       2.59403704       0.19016076      -0.05429803       0.09311252
N        5.07540466       2.14884370       2.59403704       0.19009780       0.05429239       0.09307853
32
Lattice="-7.131041411036014 7.131041411036014 4.1475159408108535 7.131041411036014 -7.131041411036014 4.1475159408108535 7.131041411036014 7.131041411036014 -4.1475159408108535" Properties=species:S:1:pos:R:3:forces:R:3 energy=-606967.654981188 free_energy=-606967.654981188 pbc="T T T"
Br       5.48903355       5.47294593       0.55826394       0.06409064      -0.01545336      -0.08196183
Br       1.64201498      12.60399447       0.55825980      -0.06420344      -0.01562278      -0.08205322
Br      -1.65808835       8.77305639       2.63201777      -0.01558798      -0.06420700      -0.08211075
Br       5.47294593      -1.64200786       2.63202191      -0.01544858       0.06409901      -0.08202834
Br       1.64201498       1.65808835       4.70577574      -0.06419396       0.01559258      -0.08204033
Br       5.48903355      -5.47296019       4.70577988       0.06423474       0.01567764      -0.08207741
Br       1.65808122       5.48903355       2.63202191       0.01565766       0.06424228      -0.08213336
Br       8.78912976       1.64201498       2.63201777       0.01557380      -0.06419164      -0.08209496
N        4.40905872       6.89592384       1.33320656       0.02675178       0.73156046      -0.11882948
N        2.72197555      -0.23512469       1.33321070      -0.02670255       0.73190119      -0.11885098
N        6.89591672       2.72197555      -0.74054727       0.73192147      -0.02671141      -0.11885170
N        6.89592384      -2.72198269       3.40696453       0.73152613       0.02674888      -0.11882061
N        2.72197555       0.23512469       5.48072665      -0.02670575      -0.73195161      -0.11886565
N       11.54010014       0.23513183       1.33320656       0.02677874      -0.73224477      -0.11894149
N        0.23513183       4.40905872       3.40696453      -0.73225622       0.02677671      -0.11893564
N        7.36616610       2.72197555       3.40696868      -0.73194726      -0.02670907      -0.11885826
N        4.74683476       8.02076719       0.88290661       0.22180274       0.85362099      -0.34242192
N        2.38420665       0.88972578       0.88290661      -0.22177489       0.85342425      -0.34234968
N        8.02076719       2.38420665      -1.19085136       0.85343440      -0.22179308      -0.34235206
N        8.02076719      -2.38420665       2.95666458       0.85360428       0.22182457      -0.34242436
N        2.38420665      -0.88972578       5.03042255      -0.22176840      -0.85343296      -0.34234135
N       11.87787617      -0.88972578       0.88290661       0.22168092      -0.85320905      -0.34227234
N       -0.88972578       4.74683476       2.95666458      -0.85322640       0.22169694      -0.34227130
N        6.24131563       2.38420665       2.95666458      -0.85341946      -0.22178909      -0.34233518
N        4.95392021       9.11988886       0.55441505      -0.34873885      -1.65077685       0.54326065
N        2.17712120       1.98884745       0.55441505       0.34875918      -1.65082548       0.54326937
N        1.98884745       9.30816261       2.62817302      -1.65082428       0.34876017       0.54326971
N        9.11988886      -2.17712120       2.62817302      -1.65076668      -0.34872932       0.54325692
N        2.17712120      -1.98884745       4.70193099       0.34876705       1.65084161       0.54327904
N        4.95392021       5.14219396       4.70193099      -0.34875731       1.65088475       0.54329643
N       -1.98884745       4.95392021       2.62817302       1.65088291      -0.34876309       0.54330374
N        5.14219396       2.17712120       2.62817302       1.65085557       0.34875853       0.54328633
32
Lattice="-7.22131734156492 7.22131734156492 4.200021716525565 7.22131734156492 -7.22131734156492 4.200021716525565 7.22131734156492 7.22131734156492 -4.200021716525565" Properties=species:S:1:pos:R:3:forces:R:3 energy=-606967.134697293 free_energy=-606967.134697293 pbc="T T T"
Br       5.55852236       5.54223108       0.56533132      -0.09903139       0.26248782       0.02545010
Br       1.66280219      12.76355564       0.56532713       0.09894664       0.26236872       0.02539085
Br      -1.67907904       8.88411953       2.66533799       0.26238254       0.09894980       0.02534956
Br       5.54223108      -1.66279498       2.66534218       0.26250279      -0.09903439       0.02540807
Br       1.66280219       1.67907904       4.76534884       0.09894488      -0.26236832       0.02538882
Br       5.55852236      -5.54224552       4.76535304      -0.09891608      -0.26230950       0.02537003
Br       1.67907182       5.55852236       2.66534218      -0.26232423      -0.09891789       0.02532846
Br       8.90039638       1.66280219       2.66533799      -0.26238245       0.09894716       0.02534745
N        4.46487552       6.98322328       1.35008439       0.36277090       1.29914610      -0.48996523
N        2.75643460      -0.23810127       1.35008858      -0.36271941       1.29947665      -0.48998831
N        6.98321607       2.75643460      -0.74992228       1.29948289      -0.36272052      -0.48998529
N        6.98322328      -2.75644182       3.45009524       1.29915187       0.36277192      -0.48996209
N        2.75643460       0.23810127       5.55011030      -0.36271714      -1.29948303      -0.48998959
N       11.68619286       0.23810849       1.35008439       0.36278570      -1.29976999      -0.49005370
N        0.23810849       4.46487552       3.45009524      -1.29977601       0.36278672      -0.49005058
N        7.45941861       2.75643460       3.45009944      -1.29948842      -0.36271815      -0.48998639
N        4.80692766       8.12230667       0.89408383       0.30402794       1.29256897      -0.47153086
N        2.41438968       0.90098933       0.89408383      -0.30400110       1.29239549      -0.47145537
N        8.12230667       2.41438968      -1.20592703       1.29239580      -0.30401525      -0.47145524
N        8.12230667      -2.41438968       2.99409469       1.29256885       0.30404219      -0.47153074
N        2.41438968      -0.90098933       5.09410554      -0.30400724      -1.29241172      -0.47146011
N       12.02824500      -0.90098933       0.89408383       0.30392429      -1.29225649      -0.47140385
N       -0.90098933       4.80692766       2.99409469      -1.29225664       0.30393849      -0.47140376
N        6.32032802       2.41438968       2.99409469      -1.29241228      -0.30402160      -0.47146016
N        5.01663472       9.23534275       0.56143371      -0.60478523      -2.92474167       0.93605439
N        2.20468262       2.01402541       0.56143371       0.60481859      -2.92481353       0.93607827
N        2.01402541       9.42599997       2.66144457      -2.92482163       0.60481927       0.93608173
N        9.23534275      -2.20468262       2.66144457      -2.92474995      -0.60478585       0.93605792
N        2.20468262      -2.01402541       4.76145542       0.60481398       2.92480732       0.93607695
N        5.01663472       5.20729193       4.76145542      -0.60481798       2.92486524       0.93610730
N       -2.01402541       5.01663472       2.66144457       2.92487311      -0.60481870       0.93611068
N        5.20729193       2.20468262       2.66144457       2.92481643       0.60481472       0.93608067
32
Lattice="-7.309390867270172 7.309390867270172 4.2512465420132735 7.309390867270172 -7.309390867270172 4.2512465420132735 7.309390867270172 7.309390867270172 -4.2512465420132735" Properties=species:S:1:pos:R:3:forces:R:3 energy=-606966.314881854 free_energy=-606966.314881854 pbc="T T T"
Br       5.62631590       5.60982592       0.57222629      -0.23434336       0.49420275       0.11588021
Br       1.68308226      12.91922410       0.57222204       0.23427891       0.49411389       0.11583643
Br      -1.69955763       8.99247313       2.69784531       0.49410913       0.23428984       0.11581411
Br       5.60982592      -1.68307496       2.69784956       0.49419852      -0.23435491       0.11585708
Br       1.68308226       1.69955763       4.82346858       0.23427335      -0.49410931       0.11582977
Br       5.62631590      -5.60984055       4.82347283      -0.23425243      -0.49405841       0.11581709
Br       1.69955032       5.62631590       2.69784956      -0.49405372      -0.23426502       0.11579423
Br       9.00894850       1.68308226       2.69784531      -0.49410525       0.23428519       0.11580777
N        4.51933059       7.06839294       1.36655045       0.65351725       1.78681701      -0.80960224
N        2.79005297      -0.24100523       1.36655470      -0.65346227       1.78710263      -0.80962057
N        7.06838564       2.79005297      -0.75906857       1.78710884      -0.65346373      -0.80961827
N        7.06839294      -2.79006028       3.49217372       1.78682305       0.65351885      -0.80959998
N        2.79005297       0.24100523       5.61780124      -0.65346111      -1.78710820      -0.80962237
N       11.82872146       0.24101254       1.36655045       0.65352697      -1.78735673      -0.80967543
N        0.24101254       4.51933059       3.49217372      -1.78736299       0.65352860      -0.80967316
N        7.55039610       2.79005297       3.49217797      -1.78711473      -0.65346269      -0.80962024
N        4.86555451       8.22136895       0.90498836       0.37585497       1.69071874      -0.58518359
N        2.44383636       0.91197808       0.90498836      -0.37584948       1.69059572      -0.58513055
N        8.22136895       2.44383636      -1.22063491       1.69059567      -0.37586162      -0.58513056
N        8.22136895      -2.44383636       3.03061163       1.69071849       0.37586714      -0.58518353
N        2.44383636      -0.91197808       5.15623491      -0.37585162      -1.69059871      -0.58513053
N       12.17494537      -0.91197808       0.90498836       0.37577679      -1.69047208      -0.58509095
N       -0.91197808       4.86555451       3.03061163      -1.69047158       0.37578877      -0.58509077
N        6.39741278       2.44383636       3.03061163      -1.69059812      -0.37586363      -0.58513023
N        5.07781922       9.34797998       0.56828114      -0.82714989      -4.03790720       1.27890939
N        2.23157165       2.03858911       0.56828114       0.82717766      -4.03797026       1.27892963
N        2.03858911       9.54096251       2.69390441      -4.03797878       0.82717838       1.27893263
N        9.34797998      -2.23157165       2.69390441      -4.03791587      -0.82715046       1.27891241
N        2.23157165      -2.03858911       4.81952768       0.82717648       4.03796889       1.27893003
N        5.07781922       5.27080175       4.81952768      -0.82718197       4.03803181       1.27895819
N       -2.03858911       5.07781922       2.69390441       4.03803973      -0.82718240       1.27896103
N        5.27080175       2.23157165       2.69390441       4.03797736       0.82717711       1.27893296
32
Lattice="-7.395391590702299 7.395391590702299 4.301265795975815 7.395391590702299 -7.395391590702299 4.301265795975815 7.395391590702299 7.395391590702299 -4.301265795975815" Properties=species:S:1:pos:R:3:forces:R:3 energy=-606965.251851296 free_energy=-606965.251851296 pbc="T T T"
Br       5.69251393       5.67582993       0.57895898      -0.34784105       0.68723489       0.19201549
Br       1.70288505      13.07122892       0.57895468       0.34777946       0.68714348       0.19197331
Br      -1.71955426       9.09827664       2.72958758       0.68714582       0.34778392       0.19195304
Br       5.67582993      -1.70287766       2.72959188       0.68722994      -0.34785340       0.19199499
Br       1.70288505       1.71955426       4.88022048       0.34777377      -0.68714715       0.19197284
Br       5.69251393      -5.67584472       4.88022478      -0.34776434      -0.68710117       0.19196062
Br       1.71954687       5.69251393       2.72959188      -0.68710392      -0.34777157       0.19193996
Br       9.11494585       1.70288505       2.72958758      -0.68714070       0.34778614       0.19195257
N        4.57250406       7.15155813       1.38262899       0.90412115       2.20067912      -1.08369341
N        2.82288013      -0.24384085       1.38263329      -0.90406283       2.20091542      -1.08370640
N        7.15155074       2.82288013      -0.76799961       2.20093154      -0.90406595      -1.08370552
N        7.15155813      -2.82288753       3.53326189       2.20067561       0.90412246      -1.08369101
N        2.82288013       0.24384085       5.68389908      -0.90406144      -2.20092577      -1.08370720
N       11.96789565       0.24384824       1.38262899       0.90412506      -2.20112602      -1.08374772
N        0.24384824       4.57250406       3.53326189      -2.20114209       0.90412523      -1.08374659
N        7.63923244       2.82288013       3.53326619      -2.20092068      -0.90406450      -1.08370611
N        4.92280158       8.31809981       0.91563626       0.43876388       2.05314138      -0.68511902
N        2.47259002       0.92270822       0.91563626      -0.43877227       2.05303503      -0.68507569
N        8.31809981       2.47259002      -1.23499664       2.05304429      -0.43878206      -0.68507687
N        8.31809981      -2.47259002       3.06626916       2.05311857       0.43877103      -0.68511200
N        2.47259002      -0.92270822       5.21690206      -0.43877309      -2.05304830      -0.68507806
N       12.31819317      -0.92270822       0.91563626       0.43870146      -2.05292250      -0.68504326
N       -0.92270822       4.92280158       3.06626916      -2.05294385       0.43871267      -0.68504985
N        6.47268337       2.47259002       3.06626916      -2.05302562      -0.43878296      -0.68507312
N        5.13756375       9.45796631       0.57496741      -1.01965197      -5.00871332       1.57679701
N        2.25782784       2.06257472       0.57496741       1.01967424      -5.00877734       1.57681803
N        2.06257472       9.65321943       2.72560031      -5.00878227       1.01967870       1.57682059
N        9.45796631      -2.25782784       2.72560031      -5.00872820      -1.01965041       1.57680148
N        2.25782784      -2.06257472       4.87623320       1.01967879       5.00877219       1.57681823
N        5.13756375       5.33281687       4.87623320      -1.01968128       5.00884210       1.57684629
N       -2.06257472       5.13756375       2.72560031       5.00884461      -1.01968636       1.57684673
N        5.33281687       2.25782784       2.72560031       5.00878741       1.01967500       1.57682066
32
Lattice="-7.479437326506274 7.479437326506274 4.350148001100119 7.479437326506274 -7.479437326506274 4.350148001100119 7.479437326506274 7.479437326506274 -4.350148001100119" Properties=species:S:1:pos:R:3:forces:R:3 energy=-606963.992232869 free_energy=-606963.992232869 pbc="T T T"
Br       5.75720712       5.74033352       0.58553862      -0.44594744       0.85152019       0.25785245
Br       1.72223767      13.21977833       0.58553428       0.44589865       0.85144738       0.25781418
Br      -1.73909633       9.20167500       2.76060828       0.85144965       0.44590663       0.25779164
Br       5.74033352      -1.72223020       2.76061262       0.85152499      -0.44595518       0.25783042
Br       1.72223767       1.73909633       4.93568228       0.44589531      -0.85144006       0.25781390
Br       5.75720712      -5.74034848       4.93568662      -0.44590760      -0.85143780       0.25782587
Br       1.73908884       5.75720712       2.76061262      -0.85143895      -0.44591761       0.25780353
Br       9.21853365       1.72223767       2.76060828      -0.85144743       0.44590486       0.25779483
N        4.62446878       7.23283279       1.39834203       1.12329729       2.55484523      -1.32214457
N        2.85496106      -0.24661200       1.39834638      -1.12325501       2.55505394      -1.32213042
N        7.23282532       2.85496106      -0.77672763       2.55505292      -1.12325802      -1.32212849
N        7.23283279      -2.85496854       3.57341603       2.55485342       1.12329732      -1.32214297
N        2.85496106       0.24661200       5.74849438      -1.12325391      -2.55504393      -1.32212927
N       12.10390611       0.24661948       1.39834203       1.12332022      -2.55519998      -1.32215874
N        0.24661948       4.62446878       3.57341603      -2.55520083       1.12331887      -1.32215605
N        7.72604933       2.85496106       3.57342038      -2.55505206      -1.12325497      -1.32212535
N        4.97874729       8.41263177       0.92604211       0.49286916       2.38273319      -0.77275232
N        2.50069004       0.93319444       0.92604211      -0.49288905       2.38264690      -0.77273602
N        8.41263177       2.50069004      -1.24903189       2.38263985      -0.49290000      -0.77273724
N        8.41263177      -2.50069004       3.10111611       2.38273546       0.49287607      -0.77275382
N        2.50069004      -0.93319444       5.27619011      -0.49288893      -2.38263777      -0.77273458
N       12.45818462      -0.93319444       0.92604211       0.49283630      -2.38259146      -0.77273692
N       -0.93319444       4.97874729       3.10111611      -2.38258689       0.49284480      -0.77273676
N        6.54624289       2.50069004       3.10111611      -2.38264714      -0.49289818      -0.77273505
N        5.19595015       9.56545240       0.58150169      -1.18756337      -5.85925743       1.83704710
N        2.28348717       2.08601507       0.58150169       1.18759714      -5.85929097       1.83706007
N        2.08601507       9.76292450       2.75657569      -5.85929888       1.18759497       1.83706002
N        9.56545240      -2.28348717       2.75657569      -5.85926410      -1.18756785       1.83704819
N        2.28348717      -2.08601507       4.93164969       1.18759811       5.85929338       1.83706051
N        5.19595015       5.39342225       4.93164969      -1.18760197       5.85937102       1.83708659
N       -2.08601507       5.19595015       2.75657569       5.85938112      -1.18760128       1.83708847
N        5.39342225       2.28348717       2.75657569       5.85929398       1.18759774       1.83706076
