42
Lattice="20.0 0.0 0.0 0.0 20.0 0.0 0.0 0.0 20.0" Properties=species:S:1:pos:R:3:dft_forces:R:3 dft_energy=23.879361716564745 energy=-620649.1632911875 pbc="T T T"
H        8.38974000      12.55440000       6.35227000      15.33212919      -9.32704723      -0.20463774
H        9.39312200      13.98070000       6.31229000      -4.41184737       6.75419740      18.02569782
H        8.67992000      13.21288000       7.96783000      21.53527673      13.88912060     -37.25609510
C        9.17673700      13.08802000       6.92335000      -5.64370767     -10.14225169      26.60861858
O       11.31905000      12.76997000       8.04735000      34.02203520      32.60782280      41.09629682
C       10.54694200      12.37665000       7.21847000     -68.46499235     -21.45599836     -43.69921081
N       10.71835000      11.19687000       6.57496000      -6.83172194      -6.15617303     -49.26220622
H       10.03380500      10.86839000       5.88127000       3.40347150      13.68813986      11.80710937
C       11.80775000      10.26477200       6.74398000      21.33216293     -44.33023822      39.14420021
H       11.79952000       9.40554400       5.94296000      -9.54452357      37.40019451      31.26186800
C       13.26380000      10.78630000       6.82563000      27.17920956      -1.90063085     -19.03178659
C       11.38114000       9.54091572       8.15361000      32.74576006      71.23665433     -89.33629790
O       11.09516000       8.39166000       8.10511000     -12.15518764     -92.51940159       0.00616145
H       13.44836000      11.70444000       7.43901000      -7.34092847     -22.41847809      -0.51421327
H       14.03545000       9.94621600       7.01787000     -32.12575341      22.23906485       9.78146992
H       13.61796000      11.06598000       5.81679000      -8.72129647       5.54783891      -3.15956904
N       11.36819000      10.30309800       9.23799100     -25.53510172      20.74604809      10.24592979
H       11.14863000      11.35332000       9.21419100      20.48498642     -37.08699161      -2.14961708
C       11.08641000       9.52119110      10.40778000      53.38894771       4.42830741      59.23990493
H       11.61437000       8.54609700      10.36615900      -4.24824241       6.55127321     -12.21621658
C       11.81078000      10.28968600      11.53306000     -14.32888449      28.91337952     -27.02859250
C        9.67434430       9.25848200      10.75861000     -74.34036115      10.40059964     -25.12010491
O        9.03232900      10.00919100      11.55193000      19.36335742     -30.09580046     -22.23681330
H       11.23759000      11.28641000      11.65566000      28.53180051     -29.16342043       4.12640968
H       11.80732000       9.70221300      12.41306000      -4.17847981      -8.98556957      31.62413106
H       12.86677000      10.37221300      11.18948000     -12.06512552      11.09682729       7.10991911
N        9.05908400       8.29230000       9.93822000     -30.11191684      23.08446383      26.58799909
H        9.68733480       7.72672000       9.33443830     -13.22787498      11.59714611       4.99639798
C        7.50390000       8.14226000       9.86418800      31.79477509     -21.77619292      13.46973920
H        7.02273000       8.99858700      10.28119900       6.38071213      37.85548226      -5.77557759
C        7.03947000       7.79100000       8.44371000      21.88853357      72.23681796      17.15979787
C        7.05805000       7.17479000      11.02377000      35.85562902      -5.02782492      45.88404692
O        6.61402000       6.01930000      11.00218000       3.17484405      32.43374218     -13.81754491
H        5.96455000       8.08214000       8.28650000      26.15629339      13.88947611      -8.71921082
H        7.91226000       8.10973000       7.77037000     -42.14338756      -7.17683764       4.87204114
H        6.94672000       6.79645000       8.53874500       1.70979394     -97.74537505     -13.27492059
N        7.46367000       7.82500000      12.23971000     -44.68183602     -51.50499021     -51.60346603
H        7.82976000       8.74269100      12.17075000      13.00260116      31.88661476      -0.75567695
C        7.25130000       7.21767000      13.48228000       7.83039243      20.42040239      63.95335377
H        7.01470000       6.19618000      13.39902000     -10.75492301     -34.75817459     -11.29874421
H        8.14418000       7.24668000      14.14207000       4.29039385       1.50833918      -9.26284242
H        6.48397000       7.66072000      14.18321000       1.45299837       1.15934251     -21.27729614
42
Lattice="20.0 0.0 0.0 0.0 20.0 0.0 0.0 0.0 20.0" Properties=species:S:1:pos:R:3:dft_forces:R:3 dft_energy=23.342410232289694 energy=-620649.7002426718 pbc="T T T"
H       14.39105500       9.86328000       9.82327100      -6.23545140      -4.28279782      -9.14615271
H       12.88361500      10.26869620       8.87106500      -1.27514937      21.92657297      -2.08442869
H       13.29311500       8.61507500       8.90762500      21.90761253      13.67534155       7.96311556
C       13.37528500       9.55965900       9.51491100     -13.13579831     -36.15911469      -4.66349992
O       12.17416500      10.22442480      11.49971500       8.42852346      28.90093673      15.76632345
C       12.51798500       9.31583600      10.74557500      14.90208253      70.11016672      -4.52474499
N       12.19116500       8.08685500      10.96548700     -48.36265147    -100.70830054      20.05565078
H       12.11925500       7.51448500      10.16332900      14.99380370     -17.10481257     -27.76413937
C       11.21113500       7.46301500      11.95208500      -8.18527276     -11.99520886     -21.20856451
H       11.05750500       6.40324500      11.60904500      20.03195022      10.78202460      12.46732402
C       11.75803500       7.66289500      13.33600500      52.12120476      30.23373771     -39.75887423
C        9.77818600       7.95262500      11.72035500      -4.49687313      -0.72123174     -30.25317217
O        8.87216800       7.20694500      11.24209600      35.60274405      33.89417068      29.92622295
H       12.03409500       8.76638500      13.45816500      -3.63354469     -35.79294104       6.25421039
H       11.26146500       7.24310500      14.11682500     -63.31995631     -12.74450206      53.52368539
H       12.59452500       6.96978500      13.42345500      27.11261098      11.72869607      -7.77441171
N        9.73426900       9.29598800      11.93000500     -25.12579305     -10.05810285       5.08022686
H       10.59560700       9.78435400      12.26800500     -13.00900031      -6.62525451     -10.56332769
C        8.43324500       9.90578200      12.06299500     -19.64432756      -1.92798129     -41.46448502
H        7.73803500       9.33350500      11.32593400      16.63814854      -0.73645105      34.34910293
C        7.96671500       9.83295000      13.54554500      48.20326521      -8.90247540     -15.77082656
C        8.29007500      11.24677500      11.24679400     -54.09617242      46.29868822      47.77392957
O        7.41484500      12.10640500      11.69115500      73.07072215     -49.22665538     -44.87144050
H        7.75403500       8.80775500      13.88156500       0.91881620      -1.07657542     -10.31767139
H        8.78831100      10.20077230      14.21623500     -13.54415895       0.83845234     -11.21050703
H        7.11168500      10.41084700      13.64142500     -41.29798859      30.80219564      11.37131533
N        9.02024800      11.33222500      10.07017700       3.79243324      -5.62921478      16.34023251
H        9.33951700      10.46736400       9.59987500      -1.18198958       7.74277146      17.63143901
C        9.03254400      12.45338500       9.15905500       4.14810754     -25.18374092     -61.94615336
H        8.50942500      13.29012500       9.63454100       4.00913931       1.59734663      -1.77790935
C       10.41706200      12.80442500       8.45758500      29.08485307     -14.54823317      53.10347447
C        8.27023500      11.91994500       7.82342500     -15.83493657      52.96849978      75.79936761
O        8.56406500      10.87639900       7.29090500       2.92142581     -17.92271889     -17.13846736
H       11.16435500      11.92467500       8.52355500     -31.45680511      18.03446703     -11.08389864
H       10.25226000      13.11548500       7.39995500       8.21255211       1.22621957      18.07831307
H       10.97355500      13.52631500       9.12132500     -11.53980261       1.29943060     -21.49178620
N        7.23496500      12.76280500       7.54220500       9.64846238       2.58378764      12.71404684
H        7.10286500      13.59675500       8.17216500      -3.04942069     -32.31950549     -23.46011770
C        6.28632500      12.25438500       6.57156500     -26.02913989      81.75970292      -5.59526373
H        6.93294500      11.90483500       5.78376500     -10.57203764     -15.18163064     -17.44965571
H        5.60894500      11.56791500       7.03850500      -7.06396372     -23.52624226       0.30807528
H        5.61797500      13.15712500       6.23947500      26.34151327     -34.02961938       2.81367122
42
Lattice="20.0 0.0 0.0 0.0 20.0 0.0 0.0 0.0 20.0" Properties=species:S:1:pos:R:3:dft_forces:R:3 dft_energy=14.871021150029264 energy=-620658.171631754 pbc="T T T"
H       13.87515500      10.23199800      11.30281200      -1.75648404      -5.39327571      -5.79855528
H       13.66306500      10.97972000      12.81331500      -4.35234712      -2.24018877       6.60942253
H       13.12387500      11.85549000      11.40222900     -26.71100500     -44.71904590      13.96591042
C       13.12122500      10.78441000      11.87488500      33.62303628      23.19289389      -7.46872188
O       10.80872500      10.40747700      12.53112500       3.16525717      12.17711066     -15.41602917
C       11.90870500       9.92629200      12.21335500     -28.43664276      10.45451842      14.38327728
N       12.07611500       8.57858000      12.35627500      -4.35626956     -36.07545171     -12.01653937
H       12.90040500       8.08933000      12.04635500      13.49130671      10.95612892      -6.61863020
C       10.99780500       7.49804000      12.61326500      37.97576260      36.53263551      34.55968241
H       11.60710500       6.57227000      12.75700500     -11.83258747      11.03103454      -3.34175524
C       10.21741600       7.86386000      13.89528500      64.75869880      54.74722680      13.93261113
C       10.06728600       7.28039000      11.47243500     -30.24203291     -36.74179295     -50.99886475
O       10.13494400       6.28546000      10.68995200      13.08744917      32.99034983      31.86575827
H       10.89869500       7.92857000      14.83338500     -20.25355045      -4.44681755     -34.08590821
H        9.75285000       8.87342300      13.76944500       7.05154463     -17.09533234       5.80538104
H        9.50905800       7.14317000      14.02683500     -51.70300838     -48.08132583      16.21213098
N        9.02025100       8.15155000      11.36706700      17.48828763     -24.19886415     -25.84510504
H        8.92320200       8.86287700      12.05108500      -4.81402217      18.88946473      14.73890418
C        7.96590500       7.88659000      10.38457520     -37.73567593     102.33392194      73.17038301
H        8.33648500       7.17627000       9.76266800      21.79562738     -49.59389556     -51.51992156
C        6.71157500       7.39048000      11.13098700      39.88744976      -2.65127498      55.67297067
C        7.53316500       9.25304100       9.61213700      13.41676845     -38.55061968     -16.67998003
O        6.70295500       9.19665400       8.67632500      19.79257456      13.01314791      32.02147095
H        6.97131500       6.43256000      11.65940500      -1.81332984      16.06163243      -3.81319493
H        6.20777500       8.08726000      11.88581500      16.99081288     -13.24813896     -27.32129441
H        6.12484500       7.10788000      10.35004640     -62.20614850     -15.36365094     -46.91750984
N        8.16652500      10.35687000      10.09246000      30.41089940      37.89849878     -21.72559223
H        9.13763500      10.30940600      10.50919750     -33.87035162     -13.58053931      -5.57675359
C        7.94693500      11.76945000       9.58009500     -20.69414386       7.06767286      13.77997953
H        6.85504500      11.84679000       9.40129500       5.03594236      -2.89586476      -0.00073150
C        8.32440500      12.69019000      10.76004400      13.26804743      33.10671958     -46.97806477
C        8.65536600      12.27990000       8.21745500     -66.02359768     -84.55222138      38.33044148
O        9.42158300      13.17528000       8.28201500      53.20218730      53.48896407     -17.77233884
H        8.11885500      12.22864000      11.64536500     -27.49300497     -34.06635525      60.51760211
H        9.40405580      12.79539000      10.83837100      10.75489931       7.14925019     -10.03473410
H        7.87306500      13.71454000      10.80811300       5.37610465     -17.04994577     -12.24856785
N        8.23122500      11.52719000       7.15556500      90.32899585      68.65127875     -40.72668659
H        7.54921500      10.86388000       7.34430500     -34.14693716     -45.73366687       2.51662025
C        9.08840300      11.54277000       5.88491500      -5.72337710      37.73377989      15.04890750
H        8.91283500      12.38174000       5.16661500     -23.25214529      -6.49673822      10.99728494
H       10.17998100      11.80820000       6.03056500     -19.59822997     -25.45357179      18.14360811
H        8.88612000      10.62954300       5.37052500       6.11333427     -19.24781719      -9.36656792
42
Lattice="20.0 0.0 0.0 0.0 20.0 0.0 0.0 0.0 20.0" Properties=species:S:1:pos:R:3:dft_forces:R:3 dft_energy=11.928158294293098 energy=-620661.1144946098 pbc="T T T"
H       11.27677500       6.77131000      11.82073000      -9.54350445      13.40752523     -11.26901186
H       12.03521500       7.78532000      13.21134000      -0.19634255     -13.74869479     -59.42251774
H       13.02273500       6.66920000      12.04456000     -37.80985868      39.10355375      -0.35978042
C       12.09691500       7.45274000      12.04843000      76.19007134     -14.58781311      55.97254574
O       12.19004500       8.53291000       9.88065300       9.69314978      18.20594058      -5.14336515
C       12.47918500       8.64310000      11.07260900     -44.62128109     -53.10608153      40.82800648
N       12.85967500       9.75288500      11.74773000      26.56512805      44.05898531     -53.75381783
H       13.37129500       9.74553400      12.60964000      -7.30471401     -22.70205529      16.64431069
C       13.34386500      11.04236600      11.07615700     -16.89766967      49.52954854      56.98989228
H       13.60301500      11.63755900      12.08421000     -10.39100092     -17.76866525     -48.30375558
C       14.64341500      11.07729000      10.25673700     -30.19107671      -4.93118589     -15.15058290
C       12.22123500      11.97693000      10.41444534      25.93931477     -28.65942802      -4.18734382
O       12.26382500      13.19754000      10.56384100      -8.88285134     -16.42259195      -1.55448417
H       14.61603500      10.60956450       9.25400000      -9.09071710       2.41512260       5.82675895
H       14.91542500      12.13806000      10.13559200       5.30419715      -7.00986719       4.91830464
H       15.30086500      10.49314400      10.84451100      35.71200363      -7.45522442      13.17905183
N       11.40898500      11.24452400       9.58796900      -2.17772594      24.27837953       5.02512306
H       11.62304500      10.21044900       9.50533200      -5.90117870      21.33239994      -5.14285559
C       10.33338900      11.91027000       8.82117000     -18.72142776     -81.60873035      -6.36941882
H       10.03295460      12.81782000       9.22766000       0.03895128      45.19767871      29.83296125
C       10.63107500      12.06551000       7.34535000       2.54466986      -5.84189175       8.32920626
C        8.98563500      11.04634100       9.02150000       0.85624435      34.57935387      11.13331430
O        8.05555500      11.25450100       8.24006000      -1.04998220     -16.93144297       5.82504066
H       11.37668500      12.84819000       7.20595000      14.85894751      -6.12597851      -0.98042817
H       10.93582400      11.04495300       7.05768000       3.81856311      12.02756013     -18.45301892
H        9.76967800      12.44235000       6.78866000      -7.63272976     -10.62605122       0.93028016
N        8.89649500      10.37444700      10.22986300     -84.04656994      39.04951647    -104.09096295
H        9.72230100      10.32501800      10.64613500      98.91855276     -14.11700149      65.84453995
C        7.77730500       9.53362000      10.58029400      20.92356528      -3.89144233       8.55693309
H        7.35454500       9.21013000       9.65304100     -16.53979122      -5.00399401     -18.60375448
C        8.41321500       8.37575000      11.33881100      -3.16434470      14.58082144      28.09796176
C        6.80015500      10.44234500      11.42693000      17.39194485       7.91550114     -47.27728433
O        6.86151500      10.44291200      12.62961000      -7.37484397      -1.62982825      38.68144677
H        9.39247700       7.98764000      11.07232100       5.06727450       8.57558543     -22.52987072
H        8.55497500       8.72703000      12.35516000       0.62251654       5.08055867      14.76461929
H        7.80145500       7.52733000      11.45317000     -28.73301826     -27.70074038      -1.13918400
N        6.14331500      11.42632900      10.71337500      10.74310829     -35.84484527      -9.64117445
H        6.14481500      11.52357200       9.70756900      12.81915883     -18.89906345      -6.83430530
C        5.66509500      12.57625000      11.35661800     -37.83000416     -10.03699750      37.13178567
H        5.53023500      13.33080000      10.64846400     -10.17627384      31.83328850     -31.05531762
H        4.69913500      12.40527000      11.89598000       9.82789932       3.39547256      -4.44466080
H        6.37392500      12.93364000      12.05571000      20.44173290      10.08282254      27.19497043
42
Lattice="20.0 0.0 0.0 0.0 20.0 0.0 0.0 0.0 20.0" Properties=species:S:1:pos:R:3:dft_forces:R:3 dft_energy=4.198822336271405 energy=-620668.8438305678 pbc="T T T"
H       13.30268500      10.54325000       7.47987000      11.35958355     -11.06541220     -24.73888141
H       12.83331500      10.08755000       9.11258100     -15.59840498      36.57968112     -21.49830386
H       13.07966500      11.88182000       8.50624400      -0.89924783      -4.00515761      12.46495396
C       12.68081500      10.88355000       8.27335200       3.01210416     -13.06374861       9.45292091
O       10.75355900      10.42675000       6.75872000      20.07283368      48.14484333      48.77895181
C       11.23552500      11.03620000       7.77790000       9.18630146     -56.77161012     -11.51363719
N       10.54513200      11.74304000       8.71802500       8.84062879      -6.59355501     -35.28112745
H       10.92606500      11.73534000       9.64479900      11.66282036       4.00971997       9.38997222
C        9.19244500      12.08003000       8.61881000     -76.29506482      24.62002310      33.25745514
H        8.97120500      12.67588000       9.50959800       5.37036911       5.47545740       4.85425387
C        8.72308500      13.02739000       7.43930000       3.44659467     -17.72517472       7.98049992
C        8.27395500      10.80423000       9.02320090       3.90822232      16.68898625       1.92337154
O        7.80849500      10.56134000      10.13643000      13.32516578      18.65956930       3.13425684
H        7.96364500      13.77105000       7.79247000      13.81067175     -12.26172166      -1.75123437
H        9.59888900      13.55291000       7.00625000      -8.39025890      -3.99002481       4.17390560
H        8.24550500      12.42578000       6.65944000       1.83439963       2.57505398      -6.70344266
N        8.20583500       9.90128100       8.05116000     -29.11957439     -22.60760856      40.61588647
H        8.30230500      10.18798000       7.12969000      16.08983609      14.22483903     -47.95796441
C        7.65748500       8.55308000       8.24067900      41.95958971      18.55611635      -9.42019043
H        6.69731500       8.45861800       8.65103500     -41.11407224      11.17961335      13.76706272
C        7.72749500       8.07676000       6.83052000     -17.30531930     -89.67746746      -1.04337212
C        8.55178500       7.72837000       9.18285500      20.88505187      47.31520523     -48.03001412
O        8.14187500       6.97494000      10.01611100     -13.46653962     -41.65136393      33.08100447
H        7.59547500       6.94528000       6.83317000      -6.47220814      19.43505162      -0.26865059
H        6.85262500       8.45393400       6.30535000       7.73736773       8.86488632     -17.55938931
H        8.73811500       8.11090000       6.42374000      -1.70367920      20.59649755     -10.54019594
N        9.83947570       7.94394000       8.79973800      21.73222838     -14.00631987      10.16193501
H       10.04987500       8.84612900       8.36515600      -1.84995905      -7.61739550      -4.66314441
C       10.98692500       7.19702000       9.33944900       4.34796251      27.55059733      -7.26983864
H       10.61778000       6.22895000       9.63701300      -0.19976372     -22.05680755     -14.19201376
C       12.17246500       7.28728000       8.32165700     -18.58088344      -1.77937878       0.78164328
C       11.30644500       7.89984000      10.65597000     -18.24480950     -28.64343015      16.49819674
O       11.96184500       8.91577500      10.63745000      23.52659777      37.87112463      19.20302313
H       12.76821500       6.37433000       8.31923700       5.61264809      -1.26966269       3.95059893
H       11.77030500       7.41123000       7.30179000      -1.47859498      -3.46439379       3.74908491
H       12.79830500       8.18381000       8.49440500      -4.97185605     -11.90479123       5.71110021
N       10.71846200       7.31900000      11.75962000       3.15494743      17.23409912     -11.82558396
H       10.06082700       6.59443000      11.51026000      -9.33982184      -2.25103178       4.08075055
C       10.65846500       7.90725000      13.13954000      52.42777150      24.20704084     -80.81251004
H       11.72094500       7.94875000      13.36194000       7.91276372      10.32085911      16.23760908
H       10.26244700       8.93781100      13.11890000      -9.18064888     -12.36387107       8.08386992
H       10.26665500       7.13895000      13.69465000     -37.00569869     -29.33975260      43.73736871
42
Lattice="20.0 0.0 0.0 0.0 20.0 0.0 0.0 0.0 20.0" Properties=species:S:1:pos:R:3:dft_forces:R:3 dft_energy=42.668054640176706 energy=-620630.3745982639 pbc="T T T"
H        6.39418500      14.23513500       6.31750000     -11.36588790       6.98619034     -10.57132663
H        8.23296500      14.00233500       5.86788000     -45.66102465      14.43956611      42.73862712
H        7.62215500      14.91960500       7.42312000       5.06043689       9.06521530       3.55615051
C        7.38394500      14.13186500       6.72340000      48.82398287     -71.11803303     -18.62461097
O        8.50429500      12.27240500       7.93662000      34.30715294     -10.91441593      13.36770829
C        7.47330500      12.72972500       7.53566000     -72.72291644      26.97277768     -23.52304269
N        6.22619500      12.06354500       7.79478000      74.03118734      10.96789625      10.11118026
H        5.37115500      12.33196500       7.40456000     -29.29673608      21.97326308     -18.11421941
C        6.14339500      10.91676100       8.69252000     103.99319814     -13.69252446     -11.78375247
H        5.19782500      11.05292600       9.08695000     -57.04724763     -21.88734855      17.92520745
C        6.62754500       9.59426100       7.88581000     -42.54262349      15.05578066       2.12165042
C        7.03707500      11.18765000      10.01076800      22.13051629      -6.68968448      22.16215654
O        6.70711500      12.01442500      10.87086500      -5.68216183     -15.31944939     -27.71804179
H        7.52776500       9.84267300       7.31781000       5.46706740       3.57008644       6.51329306
H        6.80278500       8.65852500       8.48370000      -8.87383328      19.78842696      -8.04681409
H        5.83926500       9.46197400       7.08019000      14.16902422      -7.95048316      19.04245184
N        8.16630500      10.32739890      10.26770000       8.16649007      48.58780679      -6.22986992
H        8.78926900      10.22760500       9.41789000     -20.14594991      -4.65246731      22.10539370
C        9.03537700      10.83011100      11.46655200       8.19171931     -89.28865977     -38.34371380
H        9.17883600      11.90634500      11.43454800      -9.09140442       7.08832790       8.79781373
C        8.55831500      10.13545200      12.79663000     -53.51586421      80.12626033     -25.85778484
C       10.41347100      10.12197200      11.18575400      58.53623531      38.89344828      56.65583288
O       10.74414500       9.41902600      10.28526100     -18.06681829     -44.04120989     -62.51176722
H        7.47403500       9.86607500      12.65683000      14.42368673      17.28102623       9.34568772
H        8.99603300       9.24200500      13.06448000      38.93610929     -43.79697562       7.43633507
H        8.73827300      10.93106500      13.54955000     -11.09313000     -16.85571968       5.81595149
N       11.43744500      10.32497360      12.18738000      -5.07337740      78.10211401      21.63849267
H       11.42242500      11.36347500      12.50526000       2.17732304     -51.22508659      -2.70077360
C       12.85878500       9.75486700      12.11943000     -29.14872608     -11.71598072      35.17151236
H       13.10937500       9.69341900      11.10789000       3.54038963     -20.02246999     -46.77281792
C       14.00656500      10.60451200      12.71339000     -38.32463485      71.94245700       0.64756447
C       12.77378500       8.43595500      12.91068000      -6.53420881     -28.77840483      -3.47823492
O       12.86686500       8.50001500      14.13212000       0.76284400      -3.69244058       4.76605224
H       14.80217500      10.14712700      13.32231000       1.23399335     -14.42558278     -24.48765547
H       14.28641500      11.25718900      11.76126000       6.44194253     -19.44583537      54.77234939
H       13.59696500      11.27187800      13.58979000       7.08888486     -13.30347977     -39.12879484
N       12.55625500       7.20778500      12.25255000       2.18295192      59.59730937       9.93243063
H       12.66861500       7.35018500      11.24248000      -5.67927036     -26.04655980       7.07704643
C       12.62795500       6.00986500      13.11847000     -28.72567109       9.69441776     -43.15326841
H       11.86874500       6.08283500      13.89711000      -4.82580135      -0.21336192       0.87891630
H       12.50571500       5.08039500      12.53925000       1.84365470       6.85778070       1.58894479
H       13.56650500       6.09860500      13.56149000      41.90827800     -11.91391594      26.87797544
42
Lattice="20.0 0.0 0.0 0.0 20.0 0.0 0.0 0.0 20.0" Properties=species:S:1:pos:R:3:dft_forces:R:3 dft_energy=5.88111668615602 energy=-620667.1615362179 pbc="T T T"
H        8.46135000       6.35190000      11.23985500      10.45771799       2.59147847      -3.54230938
H        7.46227000       7.77769000      10.74396500       2.37992727     -10.92143130     -13.97088754
H        7.60818000       7.47977000      12.38245500      21.71018686      -6.90181634      -5.96514652
C        8.22250000       7.39560000      11.43943500     -30.34785591      51.88206611      19.30114345
O        9.94163160       8.61837000      10.27363500      23.38972704      11.34040980     -20.51804870
C        9.36895400       8.48070000      11.32764500     -22.84935427     -44.37574329      48.66056751
N        9.68494600       9.06675000      12.54755500      -2.29571918      -1.10644760      -1.17683590
H        8.89594000       9.13689000      13.19680500      11.15984708      -5.55183245      -2.97424251
C       10.91591300       9.86098500      12.91077500      -0.76982737     -60.28853620     -63.08295071
H       10.61622200      10.40405800      13.72504500     -12.63856056      27.81853216      60.50812189
C       12.10394000       8.90464000      13.23532500     -24.50234982      44.78505196      30.28813050
C       11.02764000      10.94410500      11.89461500       0.36457623      66.69219047     -69.55237404
O       10.22697300      11.91408000      11.88133500      15.99017524     -30.61318368      18.08874131
H       13.06205000       9.42025000      13.24253500       3.31476030       4.60206806       7.68234688
H       11.82797000       8.47460000      14.19621500       9.33664596       6.03550163      16.78473651
H       12.21106000       8.02635000      12.70156500      -1.52013021     -37.48456850     -50.27718270
N       11.99806000      10.90513200      10.88784500     -19.10549533     -22.10669723      21.24897397
H       12.37910000       9.97620000      10.72731500       6.59689679       2.19780032      -5.16047696
C       12.09944000      11.91807000       9.84451100      -4.62431104      12.57243600      10.39757782
H       11.93428000      12.86563000      10.38831800     -11.89554801      -1.92858566      -9.10228297
C       13.50935000      12.00057000       9.27995400      -5.00630481     -19.02633546      -9.34329397
C       11.10097000      11.86254000       8.56269500      14.54088600      49.07615683     -32.70167701
O       11.15069000      12.76593000       7.66257500      10.03898835     -38.75752557      53.17872374
H       14.37662000      12.28343000       9.88575400     -11.22486957       6.19576481      10.44732530
H       13.74485000      11.04097200       8.84216400       7.15748613     -16.59133994      -6.06812545
H       13.36839000      12.63902000       8.43634500      10.07683815      21.45220627     -17.46363904
N       10.29824000      10.79501100       8.39686500      -1.64882425     -18.60458400      46.46281459
H       10.05788330      10.20800800       9.20294900      13.94706847      -4.15972082       0.28471127
C        9.47502600      10.62672649       7.26127500     -20.18541134       1.68319006     -29.38940527
H        9.99293520      11.22510700       6.50233500      -8.04372117       6.28939387      -6.51249910
C        9.40428800       9.18641000       6.72473500      11.51768998     -35.82612182      38.34241027
C        8.05019000      11.20607300       7.33104500      -1.78094302       2.20867888     -48.71661934
O        7.37627000      11.00831400       6.31162500     -11.23680280       5.41036381      11.18026511
H        9.10152100       8.47029000       7.57551500      -6.55108361      20.58381775     -23.14715181
H        8.77073000       8.99752000       5.80378500      20.65231237      11.94200111      24.04801009
H       10.46952500       8.87950000       6.67278500      -6.28271032      -0.67053150     -20.52077426
N        7.69433000      12.01630000       8.34297500       1.05123715       5.91819571     -18.57199573
H        8.31458000      11.91533000       9.10197300      13.54356644      13.71041838      35.18608820
C        6.45510000      12.75874000       8.36614500     -47.13934708     -66.82763917      35.65915138
H        6.15000000      13.06565000       7.38793500      -0.33949630      -2.31536695     -22.24060539
H        5.62338000      11.94700000       8.76453200      30.51079726      49.64200770     -19.44690190
H        6.41132000      13.64810000       8.98754600      12.25129341      -0.57166343      11.69544418
42
Lattice="20.0 0.0 0.0 0.0 20.0 0.0 0.0 0.0 20.0" Properties=species:S:1:pos:R:3:dft_forces:R:3 dft_energy=8.563569594640285 energy=-620664.4790833094 pbc="T T T"
H        3.31698500      12.24827000       9.58971700      17.67066344      -0.11605832      -3.21207763
H        4.11225500      12.71608000       8.02701000      -2.06312189     -20.47609871      12.61130492
H        5.02498500      13.07620000       9.42057000     -23.57198434     -35.43814366       2.73509201
C        4.29312500      12.25468000       9.04480500      14.38896541      29.12952863     -14.91665838
O        6.12111500      10.77228000       8.40054000      19.58116557      13.30004319     -12.47550071
C        5.02554500      10.89679000       8.91259300     -20.21005992     -25.00574971      23.61583038
N        4.40178500       9.75309000       9.46437900     -29.37897702      49.83777432      -2.09050788
H        3.48519500       9.96912600       9.91530690      24.80974608     -16.18072774      -6.97200555
C        5.04074500       8.43044600       9.59117900     -35.38825398     -12.14073030      -2.28609675
H        4.25626500       7.81831000      10.18067600      25.46565908      11.77552837     -22.83252687
C        5.35591500       7.84565000       8.15782000       2.00339648       0.82777049      11.97802596
C        6.21391500       8.60062500      10.56098000      26.01278650      12.23280698     -56.06912552
O        6.07848500       8.92349200      11.71367000     -10.93763063      -3.05535768      39.34778802
H        5.82756500       8.63818100       7.54444000      -1.67871066      -7.00075433       6.00927696
H        6.03452500       6.95765000       8.17303000     -10.83229349      11.65037757       4.24679667
H        4.42038500       7.57623000       7.64705000       0.32676673      -1.07003051       3.92752643
N        7.43240500       8.54415100       9.91100680      -4.88273010     -19.46574384       9.21208767
H        7.43328500       8.83034600       8.94105100       2.84620024      -3.13154313      -8.63909108
C        8.60168300       8.87825200      10.67825200      34.62237039       6.53892522     -14.89200979
H        8.42046500       9.90111600      10.95089000       0.34314263      19.78321284      32.60568975
C        8.88311500       7.86679000      11.75892000       6.46315453      -5.27345753      39.05437508
C        9.85957300       9.08170900       9.78325540      22.55368979       3.51463898      26.69405910
O        9.77878400       9.05578500       8.58186000      -6.69241005      -2.35224502     -37.68803781
H        7.93600500       7.68898000      12.35534000      26.05888409       2.47916152      -9.22725603
H        9.23825900       6.92380000      11.30615000      -7.32967070       2.29042211      -0.46701361
H        9.74233600       8.16986000      12.45556000     -27.95753594      -2.26686375     -15.77011554
N       11.10604500       9.45111390      10.38082400       2.60482188      -6.04101201     -10.36372157
H       11.40474500       9.13111200      11.29255000     -17.34146266      -3.90033004      11.31494354
C       12.34039500       9.47016600       9.49972400     -48.76532399      -0.31951080      -8.26706339
H       12.02840500       8.69086400       8.73455000      14.87885598      23.35228015      -0.58182623
C       12.53392500      10.92155000       8.85869300     -11.78442793     -50.18368399     -40.38966463
C       13.50508500       8.86305100      10.24692500      56.69079121     -46.73276397      42.76315720
O       13.54571500       7.70787000      10.84174000     -17.06392910      89.94445426     -39.12204018
H       13.36277500      10.76673000       8.04638000     -23.17002285      23.50787433      32.75559579
H       11.60660500      11.06071000       8.24979000      10.35453761      -3.32407462       3.98725184
H       12.51599500      11.79109000       9.53716200      19.54300767     -11.21920513       0.48517061
N       14.63602500       9.72408700      10.22925300     -41.74711420     -15.37692325     -33.55406765
H       14.67232500      10.26341800       9.31621100       1.60578403     -10.88524054      41.01014529
C       15.87909500       9.40756440      10.88525000      26.42873133      32.23679053     -33.19133058
H       16.01771500      10.02439400      11.77335000      -2.82350695      -2.32374509      10.10252955
H       16.04197500       8.36900700      11.07568000      -5.11795815     -21.11399928       6.43756978
H       16.68301500       9.75048400      10.17846700      -6.51598308      -8.00769632      12.11347466
42
Lattice="20.0 0.0 0.0 0.0 20.0 0.0 0.0 0.0 20.0" Properties=species:S:1:pos:R:3:dft_forces:R:3 dft_energy=-1.7076439906377345 energy=-620674.7502968947 pbc="T T T"
H       13.13842000      10.31996600       7.47589000      -2.10899432       0.48818413     -11.71210568
H       12.80091000      10.41799500       9.19466610      15.21220436      19.66589507     -11.59557002
H       13.36443000      11.93799500       8.20327400      -1.72773526      -6.27561200       8.83170553
C       12.76496000      11.01075500       8.22381200       9.90804276     -11.07790239      38.57088366
O       10.72539200      10.82032500       7.09909000     -24.64633072     -27.19319289     -42.68482685
C       11.30688000      11.24221500       8.07160000      23.08742640      10.64490502      28.45631423
N       10.62921800      11.83575500       9.10297880     -21.91460419      15.35511874     -25.34751179
H       11.05473000      12.23310500       9.92802700       7.72853927      -3.57953111      -0.05427156
C        9.18412300      12.13946500       8.87984100       2.97479947     -49.73870598     -13.51145218
H        8.88234000      12.80358500       9.68861000      -3.15921353       6.02106799      -1.66866162
C        8.79281000      12.65609500       7.48335000      41.62410829      65.72343009      20.90235328
C        8.45894000      10.78912500       9.23972540      -1.55197191      -2.56335775      -4.07026305
O        8.29958000      10.58405500      10.43915000      -8.04433738     -19.51041940      -6.38958799
H        9.06005200      13.78065500       7.57832000     -10.16125954     -29.34508522     -15.03113208
H        9.35661700      12.25414500       6.60716000     -18.22786360       2.43192630      18.12239611
H        7.72434000      12.61364500       7.45716000     -20.32394111      -2.50532693     -12.30153860
N        8.11549000       9.93304100       8.17609000      33.98529934      78.49862438     -48.03878332
H        8.38257000      10.33737700       7.21519000      -6.89105629     -19.40981052      43.74684893
C        7.74497000       8.57483500       8.22690700       9.94085618     -35.57643642      39.79395106
H        6.86017000       8.56196200       8.86925100     -11.01718156     -14.94118846      -4.90807784
C        7.62058000       7.82950500       6.90741000     -20.58796535     -35.15018186      -3.20262111
C        8.76149000       7.73889500       9.05190400       2.88013944      30.53165375     -12.05694882
O        8.38551000       7.00211500       9.93567200      -3.69364931     -25.59980425      21.31806110
H        7.60117000       6.66678500       7.03267000      -7.13555126      41.92024678       9.04344633
H        6.63557000       8.10608500       6.45951000      20.44493247      -2.00825509     -11.47897512
H        8.53737000       7.90383500       6.29661000     -10.62454623      16.62629826      -5.66681572
N       10.06235700       7.89865500       8.69048000      28.77010964      25.11726085     -17.15043615
H       10.40649300       8.64317400       8.00398000     -24.44926057     -24.48836649      26.03423551
C       11.13493000       7.23199500       9.41967400      10.99189306       5.17627338       3.29826472
H       10.78212800       6.21934500       9.66964000      -2.04561902       3.86554947       4.51281176
C       12.36488000       7.12705500       8.50777100       7.24915990      26.10782575       6.00556782
C       11.53711000       8.00976500      10.75871000      -0.31350627      -1.37273643     -16.88949298
O       12.39089000       8.91190400      10.81507000      -1.41917768      -4.86222911     -25.40297110
H       13.04182000       6.35692500       8.87003600       6.48346591      -2.31848357       3.71390143
H       12.09983000       6.87698500       7.47617000      -4.51482630      -0.80678720      -0.86690841
H       12.90794000       8.12133500       8.51622000      -9.00777699     -22.04602379      -1.07442341
N       10.92557200       7.65510500      11.89543000      -5.19477167     -36.40334896     -18.16801968
H       10.22128900       6.88839500      11.98868000      17.18100987      21.06399110     -14.46409619
C       11.46060000       8.18319500      13.12686000     -17.87199969      30.23290819     -25.55749875
H       12.39693000       8.74724500      12.98443000      -4.61370504     -12.13930827      -3.23789939
H       10.68293200       8.90036900      13.35370000      -2.31607796       8.96103949      34.38974939
H       11.54391000       7.31483500      13.70339000       5.10060934     -19.52001812      45.79031121
42
Lattice="20.0 0.0 0.0 0.0 20.0 0.0 0.0 0.0 20.0" Properties=species:S:1:pos:R:3:dft_forces:R:3 dft_energy=15.719081863411702 energy=-620657.3235710406 pbc="T T T"
H       13.40200500       9.83099200       6.19372500      15.86562879      11.82506254      -3.87350100
H       13.13799500      10.93490000       4.66962500       9.10726009      -6.41615632       1.12010861
H       12.27000500       9.33976100       5.01005500       3.95879932      20.57943315      -4.72559538
C       12.74380500      10.26534200       5.43715500     -55.11920708     -12.99395046      19.07610664
O       10.56810300      11.52042000       5.73219500     -48.03487273      -2.16348191     -49.28922486
C       11.58534500      11.07279000       6.19628500      46.49374382     -11.58547358     -31.03896424
N       11.86251500      11.39800000       7.43323500     -54.93031362      39.44910791      67.03727063
H       12.64667500      11.09088000       7.90642500      47.47873909     -21.23771620      21.43763042
C       10.84901300      12.12100000       8.42464500      55.30336044       4.76254456     -51.41279503
H       11.53580500      12.12723000       9.26421500       5.40573035      23.28497056      12.01665787
C       10.34690000      13.58196000       7.93039500      21.76706820     -51.16133209      19.98715616
C        9.78964900      11.25440000       9.01007000     -16.62511324     -11.36238021     -61.82919110
O        9.30452100      11.59163000      10.05640400     -20.37643785       6.21932317      56.11735616
H        9.30237100      13.48610000       7.64878500      -2.24682493       3.95825421      -9.34106611
H       10.42372300      14.15758000       8.83811700      -1.81074648      16.72252254       6.82305938
H       11.01339300      13.96925000       7.14456500      -7.85839464      -3.26071118       3.34105608
N        9.32765300      10.24693400       8.22134500     -19.46266277     -42.55151120      18.59012666
H        9.80969800      10.04589700       7.34875500      -2.52467844       1.99627446       0.64719356
C        8.45553500       9.09305700       8.75716500     -60.11386307      44.69250127     -29.33998960
H        7.54734500       9.55715200       9.36739000      50.46939424     -13.31639657     -14.09045686
C        7.71975500       8.38233000       7.59481500     -31.44436231      -1.32379477     -25.09794489
C        9.33754000       8.16054000       9.52764640       5.44070053      30.30827597      40.96594374
O        9.79786300       7.14375000       9.10590900      22.51055477     -56.63438388     -35.28243098
H        8.05572500       7.38898000       7.30139500      11.52355587      -7.38072171      13.89172767
H        6.59799500       8.28733000       7.69585500      21.02642571       1.03660679      16.55235252
H        7.71070500       8.88065200       6.61614500      13.89504574      16.44190791       3.50692444
N        9.66925000       8.64563000      10.75625500     -67.44894935      86.21943727       1.48564590
H        9.11257500       9.56773100      10.99900500      35.99925441     -44.80839701      -9.27414758
C       10.83226800       8.42992000      11.52619500      12.39373378     -72.34228545      -7.64422453
H       11.25267500       7.42225000      11.19979500      -6.27664297      22.63379768       0.79355755
C       11.87959500       9.48712300      11.49502500       3.51414126      16.28927630      42.77062287
C       10.30653250       8.23454000      12.94052500      12.68963527      -5.00346075      30.25068361
O        9.88659600       9.22738700      13.53797500       1.56075297     -29.81068272       5.38487386
H       12.70217500       9.11516400      12.11628500       5.98641777       1.09890016       0.64899006
H       12.29822500       9.78882200      10.56272700       0.76468671       1.43049469     -26.36888741
H       11.47057500      10.35536100      12.04584500       4.15966156       1.41060992      -8.43875025
N       10.49668500       6.89837000      13.46820500     -43.75609215      13.99506211      -5.70543578
H       10.31788400       6.21899000      12.71572500      13.98356733       6.27205692       1.70094178
C        9.67270500       6.48602000      14.67267500      18.11516744      35.82398877      -8.36224484
H       10.25819340       5.84242000      15.33037500       3.57191138      -3.11703838      -0.40772192
H        9.48890400       7.45190000      15.19256500      -5.42152677     -12.85731673       0.05933577
H        8.73083500       5.99063000      14.40572500       0.46569586       2.87677396      -2.68264267
42
Lattice="20.0 0.0 0.0 0.0 20.0 0.0 0.0 0.0 20.0" Properties=species:S:1:pos:R:3:dft_forces:R:3 dft_energy=10.38874373852741 energy=-620662.6539091655 pbc="T T T"
H       13.98761000       7.90954000      12.68423500       8.79792038     -25.20222735       0.41894295
H       12.12729000       7.54808000      12.66126500      38.74306823      29.26793990       0.67686073
H       13.03708000       9.03782300      13.38146500     -16.08047437      20.21859213      23.53714452
C       12.99532000       8.32666000      12.59304500     -20.48818599     -21.40065755     -10.64491687
O       12.88272000       8.28693000      10.19599500      19.77728770      24.98276017      45.29212544
C       13.02170000       8.96478200      11.25105500     -39.54367314      18.10616122     -58.41145186
N       13.05403000      10.40451400      11.12713500      -4.09415322     -64.76154287      29.34875881
H       12.90668000      10.99898000      11.94691500       7.67057955      -4.44604728      -9.34251185
C       13.37312000      10.87047300       9.81621200      27.66210846      58.71979614      13.58681996
H       13.52295000      12.00723000       9.91080900     -26.34672739     -24.17433407      -5.65956335
C       14.83471000      10.54810500       9.38766600     -31.70992709     -14.03926365      -9.82576626
C       12.27979000      10.52118500       8.74627900      10.54040925       3.20650800     -21.67724308
O       12.60011000      10.44028900       7.56214500      -2.13729279      -4.01623763       0.07827003
H       14.67232000      10.54940200       8.34700700       5.47945094     -14.98088689     -45.02276858
H       15.59314000      11.29111000       9.46931600       8.92298824      24.94389125      22.95328123
H       15.21659000       9.59394600       9.70690000      -0.43234206     -13.79419986       4.07112812
N       10.99790000      10.40442800       9.18404250     -11.35273409       3.48488292      19.14637880
H       10.87294000      10.68363200      10.16486700      -7.76266808     -11.76873816      -7.90758515
C        9.78826400      10.00279680       8.41579200       7.94517424       7.54467033      42.97207763
H        9.80602000      10.44218000       7.46320500      13.66289876      19.56967080     -37.67571352
C        9.63458020       8.49556000       8.17553500      26.45871254      -6.32189919      14.87458988
C        8.54690000      10.59127300       9.10168540      -5.51386415       5.25443783     -48.65689393
O        8.33409000      10.53462800      10.28818500      -8.08187907      -2.29096722      33.32405372
H        8.78334000       8.29210000       7.47207500      17.00775878      -3.78151913      15.39078808
H       10.63469000       8.24115000       7.78401500      -9.08581108      -5.80269103     -17.47655585
H        9.68822790       7.89764000       9.12280920     -20.60183018      10.80401872     -10.30554855
N        7.65688000      11.14581000       8.15942500      15.19952456     -29.55661272      -0.70570787
H        7.96390000      10.99882000       7.19594500      -3.28751651       2.75655287       2.23934740
C        6.21081000      11.11610000       8.36054100      10.81522909      -9.60832548       6.22236869
H        6.15591000      11.27760000       9.40834500      -7.89471575       5.55768649      33.15566124
C        5.54444000      12.28005000       7.68937500     -47.96791865     -31.99492632     -65.61654056
C        5.46813000       9.70195900       8.19787900     -25.68145267      24.97683503     -11.13612282
O        4.59502000       9.55468200       7.30732500      37.74823723      -9.53221113      34.68292532
H        4.43942000      12.02784000       7.52485500      25.92201336       8.61504686      11.31318970
H        5.62478000      13.21581000       8.17152500       7.01798464      23.72414194      21.27919218
H        5.86534000      12.43233000       6.61853500       2.89326955      -5.24662849      17.85149871
N        5.70701000       8.84413000       9.25848370      10.35373179      17.38601971      24.43160365
H        6.37910000       9.06843800      10.02628300     -11.41427259       8.78465992     -26.56809062
C        5.00193000       7.60114000       9.43559200      24.81827828     -13.48004894     -70.37490197
H        5.72239000       6.78419000       9.35812000       6.34595526      -7.88031766      -2.53537924
H        4.43944000       7.35345000      10.28771500     -23.65019619      16.15323509      36.41733229
H        4.40686000       7.56265000       8.51206600     -10.65463410      -9.97710619       6.27943964
42
Lattice="20.0 0.0 0.0 0.0 20.0 0.0 0.0 0.0 20.0" Properties=species:S:1:pos:R:3:dft_forces:R:3 dft_energy=6.796008270815946 energy=-620666.2466446332 pbc="T T T"
H        8.39304500       6.63820500      12.54053500       4.55453659       9.25621811     -11.13233073
H        9.78123700       7.68378500      12.81210500      -6.00303186      -3.09712991      -4.80355837
H        9.89918100       6.41617500      11.62412500     -12.30461967      13.65282602     -13.33097242
C        9.19814500       7.19909500      11.99863500      22.88217955     -28.72270852      62.99620666
O        8.76403500       9.50493800      11.38125500      15.99787792     -22.17495484      15.93803401
C        8.70812500       8.27646500      11.15442500     -24.89044649      42.64406188     -57.26114518
N        8.13036500       7.90966500       9.95688870      -8.47271315     -10.69012568      -4.44112941
H        8.08845500       6.90413500       9.74991200       1.34984169      14.35222954      -4.00320232
C        7.90680500       8.89236600       8.85076500      42.23321268       1.42000719       7.15508052
H        7.87413500       8.29288500       7.91953500     -19.27222877       3.01032661       6.24960063
C        6.84304500       9.90317900       9.10357900     -33.16703751     -10.54884665     102.71194587
C        9.30530500       9.53727500       8.58915500     -17.18812004      34.60589850       9.28142366
O       10.21798500       8.78689500       8.33822500      35.23929596     -20.70338708     -12.42324098
H        7.00541500      10.52722300      10.10831740       1.38821289     -36.38474402     -38.07684549
H        6.60132500      10.66294400       8.46432500       2.06002896      41.21503663     -63.36332834
H        5.84937500       9.44533500       9.27087700       5.94520249      -6.27997290       1.99046782
N        9.45682500      10.91528500       8.62760500     -22.91062022      -1.43818552      -0.71826324
H        8.66250500      11.45905500       8.99899500      14.41977614      -4.52406952      -6.64742638
C       10.70911600      11.55788500       8.22656500      15.37040560      -9.27002369     -42.80629222
H       11.04167500      10.82462600       7.40047500      15.63182277       8.64028796      40.43244414
C       10.58468375      12.81099500       7.35995500     -25.76132356      57.75210228      21.74692273
C       11.71396500      11.84348500       9.44064900     -73.14585293     -53.83167417      -7.76906723
O       12.61333500      12.62211500       9.34305300      35.15314443      16.85714172       7.45786703
H       10.27575400      12.65922500       6.31259500      -6.23911314      -3.98942044       9.32344475
H        9.92461000      13.58382500       7.88902500      -2.37753351     -22.10420867     -17.34276619
H       11.45611800      13.50312500       7.31741500       9.03960684     -27.34333593       2.98728967
N       11.29240300      11.08026500      10.53395500      81.95641756      52.60031158       8.07975787
H       10.48271300      10.56947600      10.49213200     -61.37876195     -31.55788799      -8.07895205
C       12.15621500      10.73289000      11.63216500      48.97578496       6.58097001      10.57892266
H       13.10497500      11.34875500      11.59790500     -22.31301060       1.82436245      -8.58930806
C       11.62159500      10.93103500      13.08725500       1.58045999     -59.36622891     -45.79031121
C       12.89000500       9.34759300      11.38846500      37.21201206     -20.23624904       2.82196641
O       13.84327500       8.94538400      12.10696500     -39.98035596      17.30674134     -10.09454246
H       11.18370000      11.88339500      13.20361500      -5.00943329      31.39625018       7.90638827
H       10.83713400      10.16223200      13.20164500       0.44806145       4.87847584      10.00216953
H       12.48889500      10.67979300      13.68740500      -0.29046695       5.39728110      15.61120328
N       12.56851500       8.71661500      10.21742600     -34.21803884      23.63040622     -32.56385826
H       11.89422500       9.24008700       9.58734000      19.53103888     -26.21175270      20.80269242
C       13.25702500       7.56146500       9.64534000      15.36791704      42.97361817     -45.31819605
H       13.57093500       7.63657500       8.51751500     -10.08909134      18.34387784      38.62373591
H       14.15062500       7.48848500      10.21425800      22.06474724     -17.06629916      15.03314663
H       12.66923500       6.69228500       9.57302700     -23.38984554     -32.79695326      16.82407944
42
Lattice="20.0 0.0 0.0 0.0 20.0 0.0 0.0 0.0 20.0" Properties=species:S:1:pos:R:3:dft_forces:R:3 dft_energy=23.79409474262502 energy=-620649.2485581614 pbc="T T T"
H        9.14666700       9.17154900      14.45076000      -2.11055856     -16.20964242       5.70535283
H        9.42135880       7.41866500      13.91445000     -10.71215535      12.31718097      -7.91360509
H        7.76983500       7.96325500      14.49159000      18.99433970       1.86585028       2.53805741
C        8.70973100       8.27358500      13.95958000     -18.05153143      27.59313983       2.81954896
O        7.61425500       9.96369620      12.50375000      -6.19756606      -0.93693290      26.48845674
C        8.10750500       8.84870500      12.67593000       8.78867717     -28.64034907     -68.58444318
N        8.12905500       7.94675500      11.57172000      -1.27286227      16.91319354      43.97271527
H        8.91085500       7.32612500      11.55227000       8.66576606     -15.00672050       7.37640820
C        7.27264500       7.80168500      10.41766100      -8.25148028     -34.01528055     -12.80470149
H        7.65070500       6.87711500       9.97254000      -7.25386446     -10.42336403       1.59823541
C        5.72046500       7.66263500      10.71717000      45.69467945     -27.15337595      20.99229690
C        7.58628500       8.72163500       9.25851800      -8.12854547      -2.02824651     -32.79754578
O        7.83240500       8.23599500       8.11348000      -5.72885193      30.84402713      43.81854313
H        5.17869500       7.50186500       9.80018900      -7.63737507       9.29326209     -11.58726298
H        5.48450500       6.76990500      11.38532000      12.28613324      22.50356310     -12.66380166
H        5.54960500       8.57621500      11.24409000     -26.14823520      17.24180180       7.18276278
N        7.44919500      10.03200700       9.57697340      21.86708457      53.51598271      25.23647466
H        7.37528500      10.43934900      10.60575800       3.43810987     -47.90428265     -42.27208160
C        7.73719500      11.18571500       8.70867200       1.36997531      -9.19033055     -29.53729676
H        7.69557500      10.88448700       7.58915000       1.35984332       0.63061265      36.55526955
C        6.69823500      12.24050500       9.00136100      48.47321459      35.20777422     -35.85314046
C        9.12829200      11.86541500       8.82101300      85.33670992     -67.04876540      -4.98652670
O        9.41431590      13.01993500       8.58505000     -19.91984657      21.14267695       3.51595436
H        6.15092500      12.35608500       8.12194000     -45.39877796      -6.27885898     -32.59668353
H        6.10369500      11.95469500       9.82441000     -16.55638161      10.11742535      28.11787023
H        7.24396500      13.23009500       8.88080600     -13.69785709     -13.31224898      34.11683744
N       10.22523400      10.91466500       9.00923400     -26.38073769      74.14779410       1.59836576
H        9.92181200       9.99585750       8.87549300       0.64633560     -48.39227717      -1.97661484
C       11.68084500      11.29287500       8.85776000     -34.82666921     -53.98359476      25.73406792
H       11.73820500      11.88529500       7.94508000       4.45588301      19.39950078       6.72137213
C       12.19505500      11.88964500      10.19505200     -26.99884830      28.30628968     -10.59685213
C       12.40349500       9.92676270       8.42359000      -2.54720582     -22.07908608       2.35146290
O       12.27689500       8.74564500       8.84078100     -11.12018419      52.12428584       2.37997467
H       13.26113500      12.09851500      10.13736600       4.92253519      12.14144132      -0.68720484
H       11.54313500      12.78081500      10.53147700      26.81789452     -17.88467949     -21.20382440
H       12.06252500      11.23183500      11.03604000      -2.60036618     -23.74902752       4.20220407
N       13.19727500      10.15250700       7.34619000     -33.73194035      35.30162843       4.61172604
H       13.35846500      11.08846500       7.00094000      -5.20790178       5.12452321       3.34250181
C       13.77085500       9.11504700       6.61352000      60.20001461      24.15300357     -49.36980677
H       13.87123500       9.32091200       5.50841000     -10.33250794      10.27581620      15.53145090
H       14.82130500       9.17366600       6.93288000       5.79473949     -36.92831636       0.00022144
H       13.20268500       8.23569500       6.63453000      -8.29955686     -38.99524219      18.92335653
42
Lattice="20.0 0.0 0.0 0.0 20.0 0.0 0.0 0.0 20.0" Properties=species:S:1:pos:R:3:dft_forces:R:3 dft_energy=19.567618252825923 energy=-620653.4750346512 pbc="T T T"
H        9.25431800       5.36128500      11.45849500     -20.05612479      17.15458374     -24.77834284
H        8.63025000       5.66529500       9.79018000      20.18458182       0.83263859     -13.75983405
H        7.74794000       6.29772500      11.05505500      30.35259602      24.25811555       8.42242056
C        8.82812000       6.17037500      10.73055500      -6.26193678     -48.89591407      40.42616349
O       10.88388000       7.16525500       9.87430700     -32.91059745     -27.87351746       9.75855148
C        9.98247100       7.14352500      10.76068500      17.36362268      22.59931337     -20.01678186
N       10.08981400       8.04040500      11.77185500      18.14657068      19.51421149      41.06062748
H        9.72813600       7.96598500      12.73854500     -21.75877301     -18.77949413     -29.19375715
C       11.26470000       8.97213800      12.03567500      -4.82849136       2.85026488      31.10722185
H       10.83286400       9.52825700      12.94305500      19.42960049      -7.05840594     -26.68173480
C       12.59604000       8.14717500      12.68926500     -14.59018316      20.40748559     -78.67791911
C       11.38032000      10.15172400      10.91619500      33.53878079       6.52337765      23.89490447
O       11.34603000      11.36428500      11.25668500      -6.24111583     -51.38079927     -18.83542745
H       12.79467000       7.15770500      12.20266500      -8.15090695      16.92160724      -5.56881390
H       13.51308000       8.77205500      12.50317500     -17.74567571      -9.17377571      16.78106292
H       12.34003000       7.88233500      13.68114500       0.05971048       7.06442588      33.31943211
N       11.67772000       9.60018200       9.71183700       0.95332303     -22.34796893     -33.42691415
H       11.56699000       8.51130500       9.65476200       1.14281019      36.75435425       9.32812561
C       11.80298000      10.26238000       8.38851100      20.35202628      37.50554350      12.89203805
H       12.18377000      11.32100500       8.61437300      -1.61590417     -25.65715960      -6.89508538
C       12.72958000       9.56602200       7.31985500     -23.92050108      -7.78333497      38.80812627
C       10.49620100      10.55744900       7.67882500     -16.26569425     -16.45672076     103.81200736
O       10.45317500      11.06138500       6.59662500      -4.96698559      15.01821528     -61.70334112
H       13.72601000       9.59297300       7.73081500      17.30875589       2.41008623      -4.82911943
H       12.44106000       8.48205500       7.26283500       1.26705563      17.67587756      -8.90418184
H       12.58804000      10.14758200       6.39526500       6.31201606     -11.09837968       2.59633708
N        9.37352100      10.28020500       8.45596300     -32.36856564       1.96995499     -86.24657441
H        9.25852100      10.21459700       9.44132800      12.41115369      -4.72769288      18.39542656
C        8.09011000      10.16166800       7.63557500      -6.12991281      24.64431617      37.88617449
H        8.44587000      10.03954000       6.59549500      -9.18926403      -3.39690645       6.73284320
C        7.27944000       9.00928800       8.24945500      47.60091548      22.84188860      41.02377311
C        7.26378000      11.52821500       7.81213500      31.26139399       0.56514696      14.87198282
O        6.27399000      11.61006500       8.54088600       1.58533045      -1.99453247     -13.46025897
H        6.55477000       8.62594500       7.62632500     -43.25565483     -17.60122079     -35.62786664
H        8.01834000       8.23039500       8.45241400      -0.89287001      -9.24622832       0.43199010
H        6.81972000       9.30100600       9.23450764       6.54335722      -0.29488118     -19.75252062
N        7.96043000      12.62628500       7.35344500      19.72182839     -34.20050042     -28.77437574
H        8.69381000      12.48536500       6.63307500      -7.62902062     -11.46161446      19.70251243
C        7.47334000      13.95187500       7.40172500     -13.94019531      30.04034115      -5.75579947
H        6.45164000      13.83505500       7.83066500      10.20561514      16.73389881       0.78141457
H        8.16253000      14.63871500       8.02765500     -25.48781910     -17.44491560     -19.92197962
H        7.37721000      14.31202500       6.31885500       2.46510708       2.58800634      30.77742856
42
Lattice="20.0 0.0 0.0 0.0 20.0 0.0 0.0 0.0 20.0" Properties=species:S:1:pos:R:3:dft_forces:R:3 dft_energy=5.028446947108023 energy=-620668.014205957 pbc="T T T"
H       13.34963000      11.61501000      14.03284000      -2.17426566     -37.89541771      -0.37954432
H       13.51533000       9.91787400      14.82118000      -0.90275788       9.81903531      24.09161912
H       11.93686000      10.56513800      14.26069000     -16.60958937      -7.46776201       6.70262499
C       12.99614000      10.51913300      14.08433000      14.86676870      10.98358602     -17.96976450
O       13.24463000       8.37764000      12.93280000      -9.88326382     -28.41377172       5.48004346
C       13.33762000       9.58034800      12.88205000       4.32913242      27.83429303      20.63785503
N       13.94088000      10.29725400      11.91856000       7.90177851      34.65744722     -65.52801897
H       13.55444000      11.24361000      11.93294000      13.81683390       0.91713464      -2.35756579
C       14.37223000       9.87113100      10.50808800       0.77886320      -1.64084901      51.93408884
H       14.94113000      10.69745700      10.03938100      -0.79748473      -3.79477959       9.53716455
C       15.14436000       8.56640000      10.60706600      10.90612074     -43.76355783      -5.10456734
C       13.23816000       9.56254300       9.58404020     -34.32729842      10.59336815      -2.10866251
O       13.51331000       9.31930600       8.41525000      -4.41233323      -4.13177786     -10.94572437
H       15.51439000       8.28921000       9.54789860     -12.26906883       4.54590959      37.44771413
H       15.98176000       8.47860000      11.35890000     -11.45532196      16.93167998     -17.18373543
H       14.39662000       7.80563000      11.02412000      20.71286730      13.80901271     -20.37430480
N       11.94848000       9.55869000      10.08607100       2.33502656      13.89480874      -4.68310028
H       11.68200000       9.96011700      11.01546000       8.79350023     -10.90710431     -23.82427680
C       10.82058000       9.29764600       9.19012600      -1.61934075      28.21670157     -13.92324941
H       11.06630400       9.68140000       8.13363000       5.99403750     -31.39707970      24.02964215
C       10.37522530       7.83149000       9.39445400       0.53688404      -5.98071778     -43.55842948
C        9.64505500      10.26488100       9.53370100      28.65788749     -37.87479822      30.29535917
O        9.57390900      10.75203100      10.66320000      -4.12842423      13.12572557       3.63244261
H        9.36137000       7.64357000       8.93058500      20.91918068      -0.10533986       6.21780633
H       11.15039100       7.13502000       8.94007500     -19.94070306      14.69790221      10.20538998
H       10.30849100       7.63653000      10.45479600      -0.67922724      -1.76056054      11.94211961
N        8.71492000      10.34395400       8.58483000      -7.81029435     -27.01212061     -25.58961301
H        8.71386000       9.68961300       7.75739000       7.37332713      18.93236274      17.81808092
C        7.40942000      10.87400600       8.85811800       7.99781318      31.51866357     -63.34590842
H        6.88857000      10.25783900       9.56853860     -11.51950308      -1.48350099      19.51966261
C        7.57837000      12.40617000       9.20440100     -35.86593876     -34.92941114      42.25489869
C        6.69144000      10.65068600       7.39198000     -63.57450032      77.06888810      26.18200850
O        7.16716000      10.02231640       6.49530000      29.10085095     -38.16110098     -25.61094351
H        6.57258000      12.83712000       9.02647200      10.26138256       9.06738390      10.98146482
H        7.89215000      12.45331000      10.32797100      -9.79605761       6.22182358     -46.29240757
H        8.27654000      12.86498000       8.51856000       9.51799079       2.73880115      -2.12098680
N        5.50487000      11.42764000       7.15142000      32.97269292     -35.21263283      36.18364477
H        5.18918000      11.95999000       7.95505000      -6.62355992      -1.03190816      -4.95006339
C        4.78806000      11.50966000       5.88121000     -39.63444629     -30.69234355      23.66015043
H        5.55207000      11.70176000       5.17882000      11.40133208      11.31550051     -34.74513929
H        4.15595000      10.57857100       5.52588000      31.24065600      26.23012064      21.20489092
H        4.01824000      12.29663000       6.01415000      13.60838747       0.53624176      -9.36298913
42
Lattice="20.0 0.0 0.0 0.0 20.0 0.0 0.0 0.0 20.0" Properties=species:S:1:pos:R:3:dft_forces:R:3 dft_energy=0.020740615320391953 energy=-620673.0219122887 pbc="T T T"
H        8.99908900       5.32572500      11.20821000       1.64875315     -20.88481486      13.34471874
H        8.59478000       5.94091500       9.55133500      -1.08043387       7.28301615      36.04831457
H        7.93869000       6.74985500      11.08300000     -27.01188360       1.11105855       7.12534817
C        8.75059000       6.20327500      10.65808000      30.82909578      31.75863174     -46.19144318
O       10.83001800       6.96666500       9.75604100       1.25733840      11.99674940      11.18350024
C        9.99270100       7.15341500      10.66258000       6.88643468     -36.03836034     -25.75468740
N       10.08451800       8.03997500      11.68107000     -45.32850580      -5.36164731       3.99230006
H        9.21951000       7.97283500      12.22256000      10.68350138      13.67036444       7.25531019
C       11.06122000       9.09038200      11.94058000      26.78684679     -33.68051014     -38.28292186
H       10.71857200       9.86315080      12.59763000     -16.90442433       1.51966805      15.28970519
C       12.36373000       8.41678500      12.45381000      -6.39663891       7.96735796      41.03823045
C       11.41519000       9.94371880      10.70411000      11.64275784      29.71161438      62.40345566
O       11.52423000      11.13758500      11.00224000      -9.11701287      17.95696620      -6.24569004
H       12.24392000       7.31981500      12.28531000      12.36837418      15.62625314       6.97201740
H       13.20736000       8.83649500      11.91929000      10.89590579      -3.93041790      -3.99643581
H       12.52710000       8.69484500      13.57086000      -6.18272951     -18.20677010     -36.22630578
N       11.83171000       9.47444000       9.54061900     -30.32261481     -25.67410550     -29.63257301
H       11.71403000       8.45250500       9.33756200      -1.91921209      11.63645349       7.42622678
C       11.87048000      10.40658000       8.43621400      38.38388625     -31.75827623     -55.39448909
H       12.11656000      11.36609500       8.85913400       7.37664521      15.20450168      -0.95511005
C       12.97178000       9.73056700       7.52438000      16.86188183       1.33030058      21.41475938
C       10.58862000      10.57896800       7.55083000     -17.90091437     -16.63565999      60.49911567
O       10.58361600      11.02652500       6.42914000       9.32120505      17.91157963     -30.79627050
H       13.95983000       9.66706700       8.06476000     -19.39274612       3.77443266      -5.90074024
H       12.62934000       8.70079500       7.40109000       0.51162162      -7.26545403      -2.35030157
H       13.19023000      10.07757100       6.52106000      -8.65934321      16.50578092      -4.75485372
N        9.43570200      10.25565300       8.24465400      22.20849113     -14.75513906       8.24214225
H        9.70119100       9.64520300       9.06322550     -29.79575137      17.53402971     -21.08425507
C        8.14905000      10.29833100       7.53044000     -22.92235200     -37.38751471      -3.82910986
H        8.44940000      10.15688600       6.46715000      -7.11198106       3.53132417       5.74362923
C        7.13584000       9.10472900       7.92399000       3.98599571      12.43722431     -33.04995674
C        7.42196000      11.65732500       7.64198000      11.73225115       0.36974769     -24.37543332
O        6.34377000      11.74296500       8.19959900      -6.45113835       8.69705080      11.42679834
H        6.04017000       9.29161500       7.62852000      37.64537680       3.04223942       6.56909603
H        7.46005000       8.16618500       7.40700000      -1.61239649      12.30746374       9.18157320
H        7.15332000       8.95213200       8.99054910      -0.51658688      -2.32331848      15.39007706
N        8.04261000      12.70198500       6.93078000     -11.50779500     -70.45643190      33.08550758
H        8.97975900      12.37991500       6.64761000      -1.11729416      20.95105793      -2.42857267
C        7.70275000      13.99897500       7.36997000       2.73401364      28.61984809      -9.01789713
H        6.70967000      14.09354500       7.77858000     -21.54463845     -12.15056603     -11.59734756
H        8.24183000      14.35781500       8.21900100      30.63249963       5.91653667      17.50357449
H        7.84206000      14.67427500       6.54600000      -1.59643416      18.13791997      -9.27099541
42
Lattice="20.0 0.0 0.0 0.0 20.0 0.0 0.0 0.0 20.0" Properties=species:S:1:pos:R:3:dft_forces:R:3 dft_energy=18.756429744302295 energy=-620654.2862231598 pbc="T T T"
H        4.47730000      13.17913000       8.38997500       0.41876519      15.52813282       7.63665220
H        3.39349000      12.41248000       9.74741590      19.82172625      17.67386301       3.20247890
H        3.08989000      12.13292000       8.20685500      -3.22456782     -18.83554595     -28.90816540
C        3.96822000      12.31953000       8.79807000       2.12717265     -15.04535242      29.74230660
O        6.11215000      11.16803000       8.34131500     -61.40269952       8.50679456      32.82800100
C        4.99779000      11.20233000       8.95191700      31.28070995     -26.53573936     -25.34454922
N        4.57367000      10.12297100       9.74167584      25.98695289       0.58965571     -19.14827484
H        3.89193000      10.21476800      10.46241800     -14.71484811       9.96517296       8.66510245
C        5.28923000       8.84073700       9.76354350      -1.04647097     -15.47255501     -30.71414806
H        4.73121000       8.09284000      10.31835800     -20.98862332       2.89652837       5.20041240
C        5.42741000       8.28771000       8.35134500      14.91701389      14.98977460     -84.29246325
C        6.52839000       8.83593500      10.59149000      16.84375090       7.14519739      74.87445326
O        6.41799000       8.85254800      11.85397500      -3.69840127       3.61573371     -33.53664774
H        6.15448000       8.86536100       7.64598500     -25.29134146      -1.82563043      31.63775888
H        5.86118000       7.29603000       8.09737500     -11.51119603      -3.16321892      29.68032964
H        4.45638000       8.35458000       7.75198500      19.11011694      -2.60453748      22.32225382
N        7.73629000       8.76299300      10.02829500     -45.56835546      13.51275571     -58.37767856
H        7.80069000       8.98347200       8.99574800      -0.66042558      -0.76201448      26.75710258
C        8.92550100       8.97048900      10.72036700      30.00561982     -42.01433801      10.47943956
H        8.90070100       9.70812690      11.51890500      -8.03168128      17.60086529      -0.21947785
C        9.32525800       7.63781000      11.44243500      27.42628789     -19.35648426       4.81504130
C        9.89108500       9.36828800       9.57151600      21.65283151      14.27176614     -27.10917440
O        9.42907000       9.83227700       8.48323500      36.55313650     -27.16226366      50.25703723
H        8.72852000       7.29353000      12.35401500       1.53067696      17.00598123     -33.26444681
H        9.40111000       6.82087000      10.65325600      -4.82723523      15.48428679      22.67136307
H       10.35209000       7.74693000      11.88013500      -9.55387344      -3.07108300      -5.92576803
N       11.23820000       9.12666200       9.88040800     -51.82494776       9.84172859     -20.59021690
H       11.38232000       8.89097300      10.85745500      13.43087028      -4.39775739      -1.78070602
C       12.34369000       9.63189520       9.12984600      32.85300509      11.88251270     -35.65405576
H       12.56945000       9.15578000       8.14576500     -19.76057881      -9.75761530       6.10424510
C       12.20601000      11.11982000       8.81866100     -57.64260570      30.22224294      14.76461929
C       13.63767000       9.37450700       9.90302200       0.27248060      69.31145785     -50.51122573
O       13.58951000       8.76556300      10.91033500      12.85779074     -53.96261976      81.60742682
H       13.11518000      11.63822000       8.51611500       2.64213842      -2.19929345      -1.93377608
H       11.41949000      11.26733000       7.95704500      25.97166603      -1.24475340      42.38774033
H       11.85995000      11.59447000       9.85469200       9.39960650      -9.72013287     -50.59085961
N       14.74489000      10.07304500       9.45137900      39.96471359      23.70660352     -25.68548177
H       14.69448000      10.77577000       8.66786500     -13.79040777     -36.68266006      20.97392897
C       15.89421000      10.49753500      10.30180000     -37.31747955      36.30451762      27.72894404
H       16.91011000      10.11250300      10.24060200      -2.24520144     -19.30232848     -14.04732184
H       15.98610000      11.61706000      10.18037100       0.50777028     -18.43441398      -3.80326439
H       15.54082000      10.42393400      11.34863500       7.52639720      -8.50531327      -2.89896953
42
Lattice="20.0 0.0 0.0 0.0 20.0 0.0 0.0 0.0 20.0" Properties=species:S:1:pos:R:3:dft_forces:R:3 dft_energy=11.829064243589528 energy=-620661.2135886605 pbc="T T T"
H       12.17885000      12.70730000       9.09730000     -14.01390405      -4.62605303      30.68594440
H       12.62642000      13.25769000      10.72291300      10.99855292     -16.62677228       6.37737035
H       11.00825000      13.03326000      10.48193700     -20.55739163      -4.09690248      -5.57036629
C       11.94309000      12.56097000      10.21230700      20.36944619       7.24377987     -24.53493809
O       11.95857000      10.63826800      11.76675000       1.28804248       0.20933046       8.95533950
C       11.97826000      11.06915000      10.62130700      -0.84260230      14.64753852     -24.24993886
N       11.94725000      10.26214300       9.50866300      12.75789288     -62.00611577      53.82610454
H       12.02325000      10.65477000       8.63518000       3.38795948      28.22855185     -54.45191782
C       12.05394000       8.71444000       9.52062100       6.82653151      31.10935490     -27.96938622
H       12.03322000       8.36408000       8.41007000      24.88357333      20.04332648      33.71997157
C       13.24804000       8.15445000      10.38496720     -13.63599862      21.74230112     -28.96113615
C       10.65234000       8.27601000       9.78357500     -25.96230431     -39.36769649      70.00410671
O        9.90733900       7.88747000       8.88259000      -4.21674436      10.32616804       6.62141502
H       14.06399000       8.91485200      10.39066330       2.26975522     -19.82006721     -20.86620992
H       13.10257000       8.12522000      11.43901000     -22.47298938      -4.32119273      25.36315416
H       13.42625000       7.11841000      10.05174100      14.33374311      10.45148475      -1.59005871
N       10.34067500       8.22596000      11.16997400      50.33809314      14.56209800     -16.63246041
H       11.13427000       8.55652000      11.81129000     -35.12517776      -9.42360331     -26.98676101
C        9.13537300       7.71892000      11.79125000       0.80700169      -2.86681972     -34.61549722
H        8.90321600       6.74231000      11.36786000       5.08834430     -14.66863202       3.07264724
C        9.31619000       7.70748000      13.27103000      -7.55455346     -68.36284294      16.53422159
C        7.87662000       8.49879000      11.31988000     104.54779124      60.43417614      21.41618142
O        6.81050000       8.02586000      11.35178000    -101.87590862     -40.21487300      -7.14191486
H       10.26618200       7.22249000      13.61603000     -12.49896426      -2.20101174     -11.85632358
H        9.37709900       8.65465000      13.66753000      -2.64242282      60.42208886      20.94916188
H        8.46464000       7.16307000      13.76479000      14.27295117      10.12035237      -7.92635599
N        8.22473000       9.79982190      11.03454400      17.95601818      -4.10954673       0.57904023
H        9.22251200      10.02004200      11.14302900      -9.59991178      -3.48562949      -0.99127947
C        7.37662000      10.84390200      10.55758800     -48.54704183     -38.17449180      20.21242998
H        6.47128000      10.26776500      10.11707400      13.96993951      17.22592243      23.55278689
C        6.99804000      11.91009000      11.59775000      46.30366533      31.80271478       3.57373632
C        7.85260000      11.49650000       9.36165000     -14.66780250      96.31753482     -52.12630038
O        7.57440000      12.72808000       9.19634000      20.63892155     -36.22583177      -1.13305741
H        7.55893000      12.91109000      11.25502200     -28.12332136     -45.03236730      20.35771441
H        5.93601000      12.12114000      11.51898000      -5.61165266       1.91931874      12.84700699
H        7.40465000      11.61033000      12.61658000     -22.08690726       5.70871831     -21.45232477
N        8.39301000      10.79410800       8.36408000      11.31437473     -14.07647353     -14.07173342
H        8.50287000       9.79835010       8.52360000       9.09005348      -5.44728928      -7.23914641
C        8.84685200      11.44243000       7.16182000     -28.80874155      40.67395284     -25.97782818
H        9.68557200      12.12177000       7.27559000      21.50766558      -8.14754147       7.83856912
H        8.87342400      10.89219000       6.23521000      16.99033886     -32.13523363       2.81710780
H        8.15066000      12.21322000       6.72706000     -11.09649548      -7.75171842      27.04091679
42
Lattice="20.0 0.0 0.0 0.0 20.0 0.0 0.0 0.0 20.0" Properties=species:S:1:pos:R:3:dft_forces:R:3 dft_energy=2.5050054222811013 energy=-620670.5376474818 pbc="T T T"
H       10.71478700      12.37888000       7.46477500     -30.26016384       8.95961745      10.01938799
H        9.56151300      13.76095000       7.87795500       2.46383910     -11.76675917       7.64399937
H        9.09218500      12.50463000       6.76379500      -6.72310227      -2.47452806     -18.34873645
C        9.62323700      12.67117000       7.68500500      54.21254217      14.73475658     -24.26131513
O        8.79190500      10.57084830       8.36944500      -5.49908686      -6.33333471       6.22695475
C        8.99130500      11.75636000       8.64126500      -8.41558295      12.04106945       7.39501314
N        8.48513500      12.40870000       9.73538900     -13.05557191      -6.28380054       1.99495908
H        9.00355500      13.08102000      10.25127760      28.84227784      29.27149498     -18.79264794
C        7.70668500      11.80561000      10.77909000      28.84369988     -45.67737804      16.48919053
H        7.64236500      12.57086000      11.51124500     -11.78195123      20.84938253      22.60642353
C        6.33456500      11.37398400      10.32524471      15.97014826      31.53181738     -35.74139232
C        8.69991500      10.79261000      11.46991500      -4.23360731      17.84948416      15.12012768
O        9.69638600      11.11863500      12.12691500     -15.19762851      15.13624406      -6.73156337
H        6.40996500      10.64172200       9.47369400      -7.70083332      15.29823739      13.46985770
H        5.74593500      11.01318000      11.13861300     -15.00387644      -8.04466919      14.07671054
H        5.97766500      12.40405000       9.97569500     -10.23790715     -35.48590029       0.07918855
N        8.38917500       9.52738000      11.25005900     -18.80840881     -55.16340863     -20.32429662
H        7.60925500       9.34928000      10.56882100      26.26176088      -2.63314405      18.76634032
C        9.36877800       8.44962000      11.57301500      -6.37341236      22.29511668      10.62626452
H        9.29642500       8.10134000      12.60370500       7.24519005      23.94052805      16.58505929
C        9.05043500       7.19245000      10.91315700     -83.57244024     -66.25645568     -53.82728957
C       10.75527400       8.87722000      11.23419500      73.51688519      -7.04595130      32.73651684
O       11.75943500       8.55590000      11.97068500     -50.22539698       8.64743368     -22.53733640
H        7.88565500       7.03914000      11.16575800      46.45724496      -0.36800215     -17.72434520
H        9.15453500       7.12713000       9.77676300      -3.93992182      11.05932116      25.75445040
H        9.49704700       6.23905000      11.26752400       6.48608482      19.27305829       7.71768442
N       10.97690800       9.51054000      10.06872800     -38.79817203      -1.38756113     -28.81490370
H       10.26051020       9.65550700       9.31589500       2.52944225      -2.43599095      27.93715346
C       12.31514500       9.66973900       9.57762000       6.46273977      -6.72375404      -0.48974363
H       12.81575500       8.79213000      10.03851600      14.50545366      15.51794158      -4.19693069
C       12.35054500       9.61537600       8.07851500      71.06518078     -13.63718365     -10.80476529
C       12.82126500      11.05470400      10.04297000      10.34826881     -37.70000659      76.60198707
O       12.76990500      12.04156000       9.35115000       5.09781268      25.47632433     -10.41338610
H       11.98604500       8.67603000       7.67640500     -13.55719426      -2.73812568      -3.96637165
H       12.00906500      10.51435520       7.59022500     -13.57805076       5.55867006      -4.57232386
H       13.48481500       9.57990800       7.82117500     -33.84072592       2.96255813       4.70108900
N       13.25324500      10.97255800      11.40306500      -9.35421993      30.19486880      -7.13316936
H       12.90805500      10.17937500      11.99932500       4.80808518       6.05300449     -31.09549007
C       13.49206500      12.14511000      12.30548500     -25.18729600     -23.19988555      15.93578245
H       13.83971500      11.66476000      13.23620500      -2.97686142       5.13390863       0.23929507
H       14.25406500      12.85645000      12.07097500      17.62503986       7.18721848     -23.19739699
H       12.58516500      12.75118000      12.57471500       5.57970431     -13.61620866      -9.74977042
42
Lattice="20.0 0.0 0.0 0.0 20.0 0.0 0.0 0.0 20.0" Properties=species:S:1:pos:R:3:dft_forces:R:3 dft_energy=10.301172251813114 energy=-620662.7414806522 pbc="T T T"
H        6.22909000       8.97254200      12.49315500      10.89747003       1.34420095     -22.51529488
H        5.39375000      10.41823400      12.62389500      11.37891135      14.20895966     -14.59243472
H        7.21166000      10.47126900      12.52878500      -9.39394206      -1.13536703       6.67022632
C        6.29555000      10.01327000      12.10595500      -4.54586219       9.13820117      29.64359377
O        6.66748000      11.40315000      10.11220800      -5.86042559      -0.04603573      20.12710796
C        6.43859000      10.30951200      10.63161400     -15.97109629     -64.08240332     -35.34713351
N        6.35198000       9.11253600       9.84243930      15.23329786      52.63728445      -8.00265995
H        6.08700000       8.26175000      10.30437500       2.53688423      -8.03402764       4.93163620
C        6.78283000       9.03605400       8.41016500     -26.95891285       2.49418767     -12.71629840
H        6.53739000       8.02350000       8.03568500      10.06325773       1.59103044      13.91602074
C        5.95554000       9.94174800       7.38381500       1.70737648     -22.34808743      58.83130728
C        8.30185000       9.24546000       8.25247500       3.53058945      69.43292322      22.34619139
O        9.12768700       8.36477000       8.01978500      -8.04625713       2.55469520      -0.35289778
H        5.43344000      10.78041000       7.79755500      -2.56206607      15.26778217      17.09995395
H        6.61300000      10.30206100       6.67448500      32.37069870      16.56787638     -42.37529753
H        5.21161000       9.32318300       6.96314500     -21.51619778     -19.10300677     -19.19342441
N        8.63786000      10.63694000       8.50297500     -10.37220637      -5.49794923      -0.92782833
H        7.85337000      11.30136000       8.97306900      41.04699966     -42.15263077     -24.73461531
C       10.08413500      11.02672000       8.50024500       9.76758139     -46.12958472      18.38582783
H       10.56531000      10.08692800       8.06387500      -7.31393353      27.88773779      -8.39946657
C       10.55214000      12.33267000       7.94851500     -35.47345749       2.71722179     -29.15548074
C       10.77236000      10.94303000       9.90823000     -42.96615249      -6.99915454     -15.30771762
O       11.50713000      11.82807000      10.30838700      18.92584509      -7.60124356      20.16455485
H       10.01748200      12.55357000       7.02932500     -10.69496060       6.86675136      -7.22577930
H       10.42405300      13.13444000       8.66895500       1.20923812       5.94069939       2.00582578
H       11.56371000      12.26785000       7.62059500      26.47198485      -1.11043522       3.15791000
N       10.33297600       9.80957500      10.50206300     -24.60556576     -61.26381424       6.30886388
H        9.79213200       9.13533000       9.88081900      18.67224910      32.89424406      12.75232325
C       10.95321000       8.98001200      11.55999500      15.71394521      25.65004943      -8.00593062
H       11.46160000       9.76113600      12.14950500       3.75176308     -10.37692278      12.30248662
C        9.92013500       8.14030000      12.35369500       3.84923163       7.16614869      -3.55484698
C       11.98921000       8.04540000      10.82029500     -19.74778050      45.74433212       8.21323942
O       11.78788000       6.86556000      10.92046500      19.06200480     -43.22946571     -13.94268387
H       10.30939600       7.78974000      13.32551500       8.59310015      -6.77429548     -10.98300535
H        9.12586400       8.81599800      12.68938500      -8.40540356       0.52442821      -9.51678207
H        9.54203570       7.26899000      11.74346500       6.43963172      19.65226725      14.15989950
N       12.87736000       8.71935300       9.98454000       2.56824007     -25.47798337       6.35265067
H       13.20435000       9.58349710      10.34311200      -5.62022042      30.80148463       9.92860299
C       13.95560000       8.03703000       9.28917100     -40.26867327     -72.48519982      48.12469785
H       14.78839000       8.61280000       9.16383000      52.86255828      43.70940205      -0.79354807
H       14.21445000       7.09114000       9.86585600       0.37643836      19.41549865     -11.10328569
H       13.66883000       7.69343000       8.33874500     -16.70605065     -10.35998873     -36.67673492
42
Lattice="20.0 0.0 0.0 0.0 20.0 0.0 0.0 0.0 20.0" Properties=species:S:1:pos:R:3:dft_forces:R:3 dft_energy=13.603539105621167 energy=-620659.4391137984 pbc="T T T"
H        5.24922000      10.43837800       8.73971000      14.26406346     -14.77872112       5.94282059
H        5.30879000       8.77186700       8.17403000      -2.19593982      -5.00014267     -10.29699265
H        6.70702000       9.83553800       7.88511000      -1.61751581      -4.44073835       3.12794064
C        5.93017000       9.55024240       8.61386000     -15.04250835      -1.33610721     -13.04786923
O        7.39127000       8.00919000       9.76319500     -15.03539818       2.22972497      23.17677751
C        6.58479000       8.93029800       9.85089200       7.60805748      69.62205369      -3.86919935
N        6.34391000       9.84082900      10.91632500     -10.24592979     -25.61959421     -23.05080903
H        5.68842000      10.61740700      10.64142000      24.89032799     -26.00081772      19.35423271
C        6.79269000       9.64919622      12.28904000     -15.89015887       5.15553539      24.98027161
H        6.22286000      10.38718100      12.89555000      14.45805254       1.99326449      -6.80754737
C        6.38069000       8.26792000      12.86532000      15.12012768      34.68150328     -54.80671520
C        8.31040000      10.01354200      12.36985000     -50.86223102     136.01751315     -33.27226799
O        8.54326000      11.27190000      12.12076000       4.09087069     -82.63437208      26.48039855
H        6.54772000       8.19939000      13.87827000       3.43384377       2.70812077      60.53016341
H        5.36433000       8.07515000      12.58562000     -14.48554519     -10.16067888      -3.03894504
H        7.08497000       7.61415000      12.42157000       4.15224329     -37.20833848     -16.07822282
N        9.17236200       9.03736400      12.53257000      40.61162037      -1.93894280      -9.02759066
H        8.76548200       8.26328000      12.06588000      -2.19778847     -43.72753298      -5.97954461
C       10.58917100       9.27848100      12.19742000      -0.40883584      35.28598606     -40.44808651
H       10.78852000      10.25985600      12.69980000       2.72414235      -7.07900173     -18.16268706
C       11.43917000       8.22700000      12.79463000     -44.18578330     -48.47724368      10.33856343
C       10.81197000       9.26107100      10.50061300      -6.34446213     -42.69845467      87.26238041
O       10.83559000       8.09481000      10.04754710       1.64698746      50.59737727     -17.18480196
H       11.12092000       8.34194000      13.86369000      12.07353921     -24.42307145      -7.87185656
H       11.16160000       7.18603000      12.27771000      16.02714811      43.92590666      31.65837837
H       12.48060000       8.42581000      12.73087000      25.60110778       3.63179084      -6.67155355
N       10.99588000      10.46844800       9.96136100      -3.86648564     -16.07537875     -33.10150546
H       10.90000000      11.28674000      10.54485500      -4.26397958       1.85735363       7.00406056
C       10.83673000      10.65338000       8.51412000       8.78830981      28.30960776     -25.75587243
H       10.24942000       9.80621800       8.12452000       1.84846592      -1.78523282       5.08577279
C       10.04536600      11.96080000       8.24754000      48.83429262     -13.66005469      35.33006910
C       12.19917000      10.57652100       7.67694000     -11.07411030     -41.60301479      -5.64106506
O       12.51371000      11.28421000       6.71676000      -5.32607277       0.11098214      24.17895568
H       10.73816000      12.81397000       8.21683000      -2.61414805       2.71495839      15.80542937
H        9.62081900      12.01812000       7.31048000     -26.26389393      -9.82780451     -53.97020394
H        9.27820300      11.97894000       8.99906000     -12.25816658      14.07848808      11.91830055
N       12.82731000       9.37787600       7.99618000     -12.45665876      15.84358727      -9.81954487
H       12.31568000       8.72654400       8.56452000     -10.88732619      -5.10815797      13.28807441
C       13.87007000       8.79438000       7.16606000     -16.84837251       4.86452807       7.65710578
H       14.75078000       9.25938200       7.56497000      29.05013175       3.44197306     -16.29069834
H       13.94358000       7.70968000       7.29966000      -4.22905680       0.44788963       5.63774698
H       13.61192000       8.99064200       6.12173000      13.37671450       6.06570799      -4.56389831
42
Lattice="20.0 0.0 0.0 0.0 20.0 0.0 0.0 0.0 20.0" Properties=species:S:1:pos:R:3:dft_forces:R:3 dft_energy=21.962007060297765 energy=-620651.0806458438 pbc="T T T"
H       10.68102300       7.58636000      12.99472000      12.65408443      15.75755424      -5.25497109
H       11.42619000       9.34075300      13.49411000       2.33711221     -63.59002419     -27.35791178
H       12.38315000       7.76007000      13.52076000      11.86568530     -11.68061948      21.87917185
C       11.59386000       8.22845000      12.97125000     -13.92739701      55.27918586      13.69501302
O       11.57896000       8.30072000      10.55219000     -18.32622092      -3.92885366     -21.19232963
C       12.18924000       8.49786000      11.59234000     -63.79100494     -25.52929508       7.79184347
N       13.40174000       9.00809200      11.60104000      43.33991032      46.34123072     -12.89061602
H       13.63026000       9.28185900      12.54703000      17.56519594      11.65464367       0.97235458
C       13.73695000       9.98402330      10.48449100      92.54464269     -45.13036912      -0.28649948
H       14.73126000      10.42873900      10.75087100     -22.66804499       9.26078047      18.18804666
C       14.35894000       9.19401000       9.25267300     -27.45543958     -29.65769561     -67.64945609
C       12.74408000      11.07030000      10.32330900     -39.18579469      35.30162843     -50.94257592
O       12.57141000      11.96807000      11.15340000      -1.68907965     -22.19320427      -7.47781105
H       13.57098000       8.41051000       8.84139000      29.91247662      35.03606366      11.38215833
H       14.83944000       9.76930800       8.28680000     -36.93637455     -12.68548767      54.21112013
H       15.22934000       8.54490000       9.48672200      -9.58307253       8.69170632      17.94713047
N       12.08521000      11.05398000       9.05415800      27.88951534     -48.08251086      -3.71482576
H       12.34280000      10.32341200       8.31511000      -1.70347774      21.06778319      42.44402916
C       11.01491500      11.85582000       8.58055000     -16.33015977      54.84202904       7.20308601
H       11.04695100      12.80495000       9.17798000      -8.77893624     -13.60826897      -2.35860862
C       11.24739800      12.29625000       7.10728000       9.65109314      41.12450049      -8.32133768
C        9.54100500      11.21698000       8.67455000     -11.39061943     -12.11454118     -22.09188438
O        8.48311000      11.73420000       8.21038000      44.20284771       5.07970545      12.81228567
H       11.43149000      11.39337000       6.47924000       0.72621360      14.63734728       0.89189473
H       10.30851100      12.81284000       6.79310000       7.83648347     -13.87051566      -1.81801070
H       12.06501000      13.18092000       6.92521000     -31.87168341     -54.96787901      16.78852860
N        9.52943100       9.91741570       9.05334200     -11.25925908     -13.20038233      -3.58329950
H       10.28101930       9.48430500       9.58399200       9.27692055       0.39356557      -0.45939862
C        8.37968000       9.02425100       8.73076000     -12.43983137      14.45722302       3.37826596
H        7.93000000       9.51839600       7.82754000       9.80893887     -20.20117221       1.62005177
C        8.80148000       7.50791000       8.75820000     -18.95345624      46.05872005     -33.61912569
C        7.24766000       9.13389000       9.80851160      40.28028654      53.14672799     -16.84564695
O        6.97151000       8.12662000      10.39823800     -38.39644754     -29.40777320      33.01677596
H        9.63169200       7.33683000       8.11135000      15.54235316      -4.96186626     -21.35669301
H        9.16171000       7.42216000       9.73097500      13.08022049     -18.43737655      44.17108896
H        7.96939000       6.81908000       8.56806000       3.18482199       6.08263019       0.67639857
N        6.79524000      10.41936300      10.07873300     -15.89015887      18.61441973       4.70501145
H        7.07122000      11.23616000       9.45076700      -3.18102990     -35.85491800      14.55451382
C        5.48539000      10.51444000      10.80161800      21.50517702      -7.08108738      31.37823775
H        5.44404000       9.64008000      11.48530000      -1.91537260       1.63738873     -12.48450692
H        5.21032000      11.36517000      11.51802000      24.32921723      -8.72028920     -30.64411291
H        4.77066000      10.40957600      10.02237000     -31.86030714       0.43951622      -9.35721805
42
Lattice="20.0 0.0 0.0 0.0 20.0 0.0 0.0 0.0 20.0" Properties=species:S:1:pos:R:3:dft_forces:R:3 dft_energy=3.8554499278543517 energy=-620669.1872029762 pbc="T T T"
H       10.80549300      12.40181500       7.48113000       1.72984461      -9.42775091       0.78773314
H        9.65530800      13.63223500       8.06081000      -1.81687307     -19.47439454     -22.81795103
H        9.17333000      12.42560500       6.67495000      12.76535856      13.77547642      10.35501162
C        9.73925700      12.58657500       7.62989000     -21.98298031       3.94966275       6.49199811
O        8.85854000      10.44364346       8.36677000     -21.66965890     -62.70587481      -5.22030902
C        9.02753000      11.59379500       8.60895000      33.63370153     102.06124700       9.71024974
N        8.65019000      12.34946500       9.73943500       7.36051698     -16.93950116      -1.86474820
H        9.36057000      13.10675500       9.81776600     -24.25989309     -12.66095759      18.67319712
C        7.88955000      11.73589500      10.89690200     -32.46253836      50.78603372     -27.10502680
H        7.68770000      12.55040500      11.67837000      13.27195802     -21.06304307     -21.62711640
C        6.50648000      11.31504200      10.30123390      10.39800443     -20.13481065      31.14395772
C        8.76014000      10.69057800      11.51064000      24.36429406     -14.74210375      35.85325896
O        9.76946700      11.04537400      12.16100000     -19.71459972      -4.35776269     -13.16992711
H        6.64278000      10.65096000       9.47829800       8.12334320     -27.84329924     -12.00291155
H        5.86761000      10.85336100      11.07227600       5.28718015      -4.44210114      -0.91123320
H        5.86752000      12.02356500       9.82842100      -2.13822896      38.97189714      -0.31817883
N        8.49047000       9.36085500      11.32473600       6.89076003      57.15010806       4.39811290
H        7.67895000       9.09421500      10.84947100     -32.19258899      -7.45616059     -23.78742243
C        9.44363500       8.36959500      11.64068000     -13.29435505      -8.07639239       8.66601492
H        9.51598500       8.32055500      12.75864000      -7.98219451     -19.15088190     -11.91581199
C        9.00233000       7.04126500      10.86323900      15.84157273      51.33446468     -29.35776502
C       10.86692000       8.82328500      11.32727800     -20.28282064     -16.52616340     -35.21950599
O       11.75442000       8.41507500      12.03829000      36.79227515      -9.32235452      21.85641932
H        7.91103000       6.84986500      10.90679500       9.41516592       4.72609309       2.45087490
H        9.36518000       7.06275500       9.73486700     -14.15788495      -0.64952332      51.98457104
H        9.52320700       6.36776500      11.46543000      18.74773538     -49.62553581       9.01369028
N       11.02574100       9.41143500      10.10481300      53.91758870     -37.72714373      39.23532886
H       10.22860600       9.89232800       9.82655900     -30.24452147      26.55410729     -36.21398149
C       12.40110000       9.60413800       9.62804500     -17.43602789      25.82673711     -11.26607299
H       12.99713000       8.85671500      10.08358800      10.10162893     -31.89656899      11.65305573
C       12.47945000       9.52627400       8.11703000      13.80782768      -7.54046348     -18.37030396
C       12.95261000      10.93261500      10.17930500      -4.88243384      49.62980191     -64.54243119
O       12.97562000      11.93469500       9.43391300      -8.81428562      -1.76517030      13.76706272
H       11.82337000       8.70430500       7.72696000      18.52933472       4.48723885       7.31921875
H       12.04316000      10.43254630       7.68586000       5.44168410       5.06099386      -0.89681141
H       13.57980000       9.44283000       7.76420000     -38.88159800       0.07737569       9.60010138
N       13.36815000      10.91127100      11.42843000       8.67859992     -22.17661388      24.11508267
H       13.42502000       9.95340700      11.68096000      -3.01024366     -22.11475542      34.19540480
C       13.51195000      11.97350500      12.40810000      17.39111533       2.80436875     -19.31323074
H       14.03787000      11.61603500      13.32505000     -10.84543545       1.94826897     -14.14876024
H       14.13248000      12.73983500      11.90737000      -4.56260663       3.81255501      10.31449551
H       12.51627000      12.36946500      12.61442000      -1.85776839       4.86297568       8.48462268
42
Lattice="20.0 0.0 0.0 0.0 20.0 0.0 0.0 0.0 20.0" Properties=species:S:1:pos:R:3:dft_forces:R:3 dft_energy=14.474644947098568 energy=-620658.568007957 pbc="T T T"
H        6.49854500      12.26336000      12.93514500      -0.33760500     -24.28335665     -14.44276568
H        5.03805500      11.19122000      12.78683500      34.12086654      -0.27834649     -14.02528032
H        5.47541500      12.32044000      11.51241500      25.76049404     -31.16078511       4.86123369
C        5.97862500      11.55284000      12.21659500     -43.50308868      40.13061751      15.15650804
O        7.79496500      10.67448800      10.79462000     -30.02612081       1.28425039      20.42075790
C        6.86669500      10.45341700      11.60815500       7.42540911      40.11698969     -16.47283714
N        6.57086500       9.22630500      12.03751500     -28.28638121      -7.36458162      12.12591745
H        5.77722500       9.08421100      12.69181500      18.66502043       8.01173726     -14.25659778
C        7.29927500       8.05476000      11.64972500     -11.29105338     -41.94015526      38.06155863
H        7.19727500       7.44428000      12.57460500       4.41886274      -4.56112535      -4.49694423
C        6.60793500       7.21048000      10.53880500      23.85959064      53.20123928       2.66233129
C        8.78847800       8.30321000      11.59777500      40.53542307       6.62967466     -31.93899300
O        9.46990400       8.92524300      12.42301500     -22.87862446     -13.54202590      -3.26809390
H        6.79753500       7.68444000       9.58738400     -15.97062228      21.67854661     -14.95114269
H        7.06781500       6.29680000      10.30789200      11.49485449     -45.83972688      15.62660865
H        5.57055500       7.16625000      10.78956400     -19.82397780      -8.18644594      -3.98558095
N        9.34401600       7.74812000      10.45201600      21.78958374      33.86110840      65.61677757
H        8.73355400       7.43057000       9.80264800     -53.01578240     -29.43739890     -57.11882332
C       10.64505500       8.06750000       9.98219250      15.77995127      19.83902766     -11.07992879
H       11.11132500       8.42276000      10.88312000      18.67331562       9.35036858      12.65467694
C       11.36363500       6.84078000       9.44899400      -9.47907447      18.98817756      -4.49797521
C       10.70624500       9.31722300       8.93854500      14.10918030    -129.92409921      29.59500762
O       11.31818500       9.07997400       7.90528500      -1.06794841      28.62423269     -13.62533337
H       11.75992500       6.33113000      10.30740300      -4.77238029     -25.05480987       9.25298298
H       10.65750600       6.31632000       8.79281500       6.53158990     -13.19516821       4.70784366
H       12.22624500       7.11081000       8.86095500       6.86727278       7.87148920     -10.93362524
N       10.16228100      10.39224000       9.40303100     -12.11477819      73.44566501     -35.95754143
H        9.42011100      10.50564200      10.12675900      11.85466454     -14.51007527      -8.55462229
C       10.36251500      11.54630000       8.48124500       4.68353874      13.32919488      31.81610559
H        9.91413500      11.54492000       7.48236500      -7.40650791     -19.95492340      -1.32903260
C        9.70099229      12.67834000       9.21861000      10.32056285      50.55862685      22.81107787
C       11.82462500      11.79222000       8.12550500      55.60625359      -6.27749619      51.92840071
O       12.16161500      12.23345000       7.06485500      -7.35994816      18.94101344     -60.27431586
H        9.87758300      13.70320000       8.78431500      11.22728702     -17.66379027      12.18125826
H        8.67055500      12.58482000       9.05848500     -46.18314799      -9.32756865      -6.29620779
H        9.74396180      12.66113000      10.36208100      15.36708752       3.37102543     -30.73796713
N       12.84412500      11.58608000       9.08466300       6.93894327      -0.00743876     -73.48133435
H       12.50700500      11.51563000       9.97935650     -10.59116400      -9.90003197      67.57894692
C       14.30246500      11.89476000       8.81877500     -40.46799498      33.31895810      -1.74471672
H       14.96194500      11.16376000       9.29861400      -2.15553037      -5.90360801      -9.80380770
H       14.45552500      12.10444000       7.70517500      -5.71715571     -17.53687377      31.78920546
H       14.47683500      12.87137000       9.32839700       6.41915444      -6.70205617      -5.57398062
42
Lattice="20.0 0.0 0.0 0.0 20.0 0.0 0.0 0.0 20.0" Properties=species:S:1:pos:R:3:dft_forces:R:3 dft_energy=8.353858929127455 energy=-620664.6887939749 pbc="T T T"
H       14.92251500      11.25635000       9.28422800      -5.79545051       5.73405421      -7.79386987
H       14.48226500      10.35551200       7.70430000      -1.22648027      11.97506339      -9.68134690
H       15.62043500       9.66894100       8.87349200     -24.76909962      17.09272528      -3.10714340
C       14.67558500      10.32838300       8.76928400      34.52496109     -48.44726247       9.99732277
O       13.18839500      10.11193300      10.58276000      -5.90754230       1.47643823       9.51882031
C       13.55739500       9.62938500       9.51055700       6.24954138      26.91731837      -0.89407163
N       12.91618500       8.55874000       8.95745300       8.62404123       1.32153137      21.57781923
H       13.45757500       7.96406000       8.31554000      -8.00664164      11.12184323       2.97860341
C       12.03038500       7.78869000       9.87606700     -47.97834690     -34.54664710     -80.66438154
H       11.91441500       6.89108000       9.14658500     -11.59527377      17.51637279      36.62933380
C       12.56847500       7.37126000      11.19470000      57.10021838     -37.89731375     -39.69310517
C       10.51157200       8.39199000      10.05062000      10.60993484      14.21452929      10.82455526
O        9.44281200       7.97455000       9.58966200      28.94786384     -14.94059594      -8.09224806
H       12.64030500       8.18406000      11.83168000       4.06137534      32.10146034      38.06594323
H       12.01193500       6.55109000      11.57096000     -21.38501518     -16.52912597      15.46911843
H       13.61335500       6.92947000      11.01926000     -22.33671116      14.24948762       7.55925802
N       10.49052900       9.44054200      10.93179000     -57.00944524      -1.25263384      21.69015989
H       11.37055500       9.86963370      11.24791000      -6.27384631      -2.10943278      -0.73234019
C        9.09680200       9.77247700      11.57425000       1.70658251      42.37695657     -49.13967433
H        8.37407500       8.91974000      11.42397000      26.31781271       5.15894827       9.26402744
C        9.22062600      10.27989500      13.00010000      24.81638224     -44.54840187       1.67316473
C        8.23757500      10.91134700      10.70701000      88.04023278     -53.63768509      10.66761015
O        7.24879500      11.37947000      11.19453000     -48.89010743      21.68850085      15.71157516
H        9.68453660       9.41557700      13.54264000      -7.85141482      15.90710477       4.99344726
H        9.85556300      11.14094000      13.13537000      13.38015108      10.68433090      -6.94749917
H        8.28559500      10.54990600      13.44892000     -20.09866729      -2.81087455       2.52589902
N        8.78371100      11.21649000       9.50303500     -15.88387823     -12.96799834      -0.76802494
H        9.41216500      10.54353100       9.08861200      12.47087910      -9.21636562       9.60293360
C        7.94989500      11.78416000       8.47787000     -29.85571378      31.16753977      -4.64109104
H        7.28489500      12.52438000       8.96813700       7.88438230      -2.23040044       2.13150985
C        8.78811700      12.48521000       7.45592000      -5.20911051      -0.24726676     -12.88267633
C        6.99277500      10.74006600       7.89130000      71.47354142      26.11102532     -27.46551232
O        7.30958500      10.15856200       6.84086000     -22.56980617       2.10534443      16.52142329
H        8.33632500      13.44891000       7.32042000      -1.85130998      20.92297276      -8.12885358
H        9.73394510      12.63293000       7.96472000      17.64032672       3.07417592     -14.71034500
H        8.77345900      11.98742000       6.45736000      11.83954359      -0.10845530      17.44349357
N        5.97515500      10.56236500       8.72267000     -13.78566766     -31.37183860      26.58468101
H        6.12885500      10.93195000       9.69421470      -7.44535313      -4.02146360     -21.26094275
C        5.43351500       9.24602600       8.58274000       3.55011871     -57.66144764     -29.59725918
H        5.63063500       8.49715000       9.36513000       6.70399962      13.47412380      13.33666055
H        4.37956500       9.26206400       8.46210000     -30.38482878       0.30849123      -6.41064594
H        5.90601500       8.71176000       7.65767000     -19.83215450      27.84472128      27.84377326
42
Lattice="20.0 0.0 0.0 0.0 20.0 0.0 0.0 0.0 20.0" Properties=species:S:1:pos:R:3:dft_forces:R:3 dft_energy=17.005000010249205 energy=-620656.0376528938 pbc="T T T"
H        5.78776500      14.09699500       8.29299500      16.57948966     -27.87553201      -5.70122893
H        4.53958500      12.95946500       8.14887500      -3.06420984     -13.54498847      -8.42637856
H        5.44692500      13.55869500       6.68008500      -2.14593164     -18.06065615      24.36879717
C        5.54341500      13.13211500       7.74497500     -31.14348370      92.36120036     -24.60426223
O        7.70465500      12.11116500       7.76442500      -9.16011234       1.66008202     -12.72376407
C        6.47176500      12.01738500       7.76457500      18.71751717       3.68271150      25.88575150
N        5.83798500      10.82233000       7.87797500       9.51931803     -45.14423395      12.19216052
H        4.91079500      10.77432700       8.37254500      30.42985985       5.11789890     -18.09205939
C        6.79161500       9.71486100       8.21349500     -30.79295242      -7.24552186      26.47992454
H        6.15453500       8.95821900       8.69898500      -8.85558385     -10.01602251     -15.03373914
C        7.64460500       9.08675900       7.13552500     -31.94562915      16.64668075      13.15049266
C        7.55885500      10.03922990       9.49449800     -18.69073553      53.85573024      12.76085545
O        6.90586500      10.69622900      10.35119600      39.08613383     -27.94533015      -6.69034810
H        8.29487500       9.89614150       6.76300500      -0.29154770     -17.23232158     -11.71416762
H        8.11075500       8.35794500       7.76949500      25.50677955     -19.94733922      -8.28154444
H        6.95680500       8.53040500       6.48743500      11.84757808       8.04687334     -15.97157030
N        8.86405500       9.66174200       9.57937000     -32.87860169      10.64898151       9.35057004
H        9.36709200       9.22767800       8.83468500       6.04767186      -6.33126091     -20.92380228
C        9.72264600      10.05738600      10.65025200     -32.70096600     -10.97627439      27.67881736
H        9.45350100      11.11162500      10.87821500       8.37657183      -9.31834913      11.55249426
C        9.47305800       8.99258300      11.78560500      11.29853091       5.75130821      48.62928277
C       11.10407500       9.84854740      10.15872000      15.14027316      46.75065789      14.31620469
O       11.30774500       9.29325000       9.11328800      11.36625526     -32.40222044     -45.99081794
H        8.38266500       8.91441500      11.93173500       5.07126805      -3.32230893      -3.89506851
H        9.89925500       8.02262500      11.42386500     -10.94199153       9.83676332       4.98080301
H        9.88082600       9.15227500      12.89861500      -8.77356806       2.79511368     -52.09596367
N       12.11551500      10.40693600      10.92301500     -53.61244399     -22.07268692       5.10570496
H       11.74216500      10.46941700      11.85728500      13.11340128      12.66392016      19.20918528
C       13.41039500       9.91405900      10.65969300      65.36981774      59.60145697      61.31536296
H       13.28796500       9.42273200       9.75384450      10.18840853      -9.05964567     -58.61480266
C       14.41163500      11.21575500      10.71474500      -5.75329906     -70.32394577     -11.02137656
C       13.95542500       8.74482500      11.47661500      20.94264423     -32.90230225     -30.07577348
O       15.15629500       8.45355500      11.33514500     -19.00832303       9.68562485      24.55140998
H       15.46041500      10.99056500      10.49493500      -2.35004087      -8.40976446      -1.58903959
H       14.03191500      11.83653500       9.95379500     -10.82797999      30.30341736     -18.26993209
H       14.38631500      11.63617500      11.69818500      -7.80790060      11.15528472      16.63874106
N       13.00803500       7.85461500      11.92394500     -26.10344114      47.33558771     -10.38021716
H       12.03908500       8.12768500      11.60006500      29.87337070     -20.38864364      22.49455689
C       13.33831500       6.58221500      12.47656500       1.18980366     -32.88334181     -18.86517165
H       14.07230500       6.05652500      11.82214500       5.15893642      11.72964409       9.85918405
H       13.71915500       6.63090500      13.51256500      -4.83613479      -1.42305272      -5.87657752
H       12.47710500       5.90300500      12.35631500      -3.13881920       7.19684091      14.31727122
42
Lattice="20.0 0.0 0.0 0.0 20.0 0.0 0.0 0.0 20.0" Properties=species:S:1:pos:R:3:dft_forces:R:3 dft_energy=14.01374238554854 energy=-620659.0289105185 pbc="T T T"
H        7.50747500      12.03301000      11.09377000     -10.43638749     -19.44156927      25.57373363
H        6.28042500      12.20791000       9.72263300       3.50371302       0.48693985       9.28336710
H        6.99811500      13.69112000      10.65897600     -16.56515082     -29.82431054      -0.99582524
C        7.12804500      12.62367000      10.29017300      -6.81756085      39.78660388      -4.40404989
O        9.16868500      13.69668000       9.95402600      11.18267072      -1.17093564       1.02475414
C        8.37179500      12.84980000       9.53939800      24.74765062       2.19948306     -59.33494417
N        8.57098500      12.13446000       8.35226000      40.22115365      47.73660119      17.85303924
H        7.80011500      11.53602000       8.14667000      -4.77147967     -16.15098354     -16.93464255
C        9.79277400      12.29734000       7.35770000     -31.43334155       5.82840613      16.94969240
H        9.43468500      11.61604000       6.58318000      11.82352201      -2.28139219      -7.98667392
C       10.03126700      13.76119000       6.71847000     -66.58423442      -2.34713755     104.07638710
C       11.08272200      11.71286200       7.98172000      11.46749220      10.36049830      67.68299238
O       11.87455500      10.96171500       7.46777000      11.88002414     -21.88237143     -51.98694109
H        9.10589500      14.09022000       6.25334000       4.04679950      -6.92237658     -29.25952620
H        9.97377800      14.53350000       7.58125000      15.61689142     -27.67466976     -16.83770726
H       10.97590700      13.83301000       6.28909000      32.86769944       2.28580050     -32.61102237
N       11.34328800      12.03455000       9.32312000     -66.18642053      67.20341155     -16.72856618
H       10.70832200      12.77198000       9.70845400       6.95058024     -10.70503334      -6.11637979
C       12.58629500      11.92413000       9.99402070      38.10658969     -66.99567614     -51.62692959
H       13.34207500      11.74930300       9.17806800      -1.67643540      13.79763644      10.59572635
C       12.93629500      12.99886000      10.97203400      -8.33386342       1.61255054     -36.51154201
C       12.64094500      10.51782700      10.62914100      58.61101057      20.25971260      25.60726992
O       13.70708500      10.06214700      11.08237000     -10.55088489       5.41807834      -5.07856782
H       13.22459500      13.91215000      10.46853400      -0.50254667      11.04315737      -4.53401191
H       12.04218500      13.12520000      11.50385000     -30.24144040      17.53059313      32.54975643
H       13.71957500      12.69270000      11.60026000      26.90606060     -13.17715578      22.76118819
N       11.47977300       9.94000900      10.82151900     -35.05549812     -64.58876578      18.91352080
H       10.65417600      10.03341400      10.25413600      -6.54547842      25.10943966     -10.29724150
C       11.27992800       8.73441000      11.63701000       1.37435992       6.14098097       2.90822460
H       11.90251500       7.83444000      11.40660000       9.13637623      19.96878822      -2.67985786
C       11.39340200       9.09081000      13.15285000      -5.07105474      24.45032709      11.10061938
C        9.81740000       8.26459000      11.30218000      68.61596492     -23.64178249      44.05543022
O        9.01872500       9.06689000      10.90549400     -49.40820167      10.37095024     -19.68568504
H       12.45755500       9.15396000      13.57513000     -25.58238433      18.00638187     -25.11986791
H       10.67136400      10.01198100      13.40063000      41.35889902     -39.81042294      -9.28206357
H       11.06965200       8.24977000      13.74666000     -18.32693194     -13.96413288       6.78498443
N        9.69881400       6.93835000      11.65903000       2.19591612      11.00841235       2.64914193
H       10.59166490       6.54786000      12.05621000     -32.04386797       8.83048495     -11.44219185
C        8.42923500       6.34317000      12.10777000      11.44355463      18.08198665     -28.32892372
H        7.58215500       6.98002000      11.80543000       7.62423311       8.87661809       9.47163250
H        8.25515500       5.46650000      11.50212000      -0.39693935     -23.59888448       8.76609053
H        8.52544500       6.23501000      13.17956000     -13.15108517     -12.21633509       9.17539920
42
Lattice="20.0 0.0 0.0 0.0 20.0 0.0 0.0 0.0 20.0" Properties=species:S:1:pos:R:3:dft_forces:R:3 dft_energy=-2.1293698345543817 energy=-620675.1720227386 pbc="T T T"
H       10.66409600      13.70036500       6.01593500      -3.26759619     -22.95541428       7.86889399
H        9.90812800      13.79476500       7.55212500      11.24486099     -24.33952697      -8.22292110
H        9.29245600      12.56656500       6.44398500      24.87575214      -7.82822383       2.99136617
C       10.26229000      12.99874500       6.81093500     -22.90137700      72.45474460      12.39811838
O       12.07000500      12.41476500       8.37604500       3.90973916      21.14955012      10.51971866
C       11.36373500      12.15184500       7.41855500     -26.77025640     -22.00336279     -25.33672803
N       11.47876500      10.98686500       6.71334500      42.76848982     -20.50927949      18.21921289
H       10.72105900      10.67289500       6.16760500     -24.31428588      -3.01095468     -20.04889612
C       12.46625500       9.92416000       7.05053500     -50.19908936     -16.56633585      15.19940606
H       12.52997500       9.19737500       6.24597500     -12.28269666      -2.59474915     -11.07872006
C       13.81221500      10.42481500       7.22818500      92.93439840       0.96735731      -4.82746039
C       11.96880500       9.06086700       8.29446500      26.62354993      28.54187325     -28.40832059
O       11.74899500       7.85039500       8.18327500     -12.11821477       2.90509613       8.25619669
H       14.01332500      11.08932500       8.05602500     -11.04420020      13.96887299       6.93531708
H       14.52930500       9.55366100       7.53688500     -22.91678236      24.15383309     -26.38938840
H       14.17359500      10.98468500       6.28475500      -5.62142915     -22.88656415      27.08345929
N       11.90371500       9.80792400       9.40663000     -10.97640475     -25.38187760      60.93793154
H       12.34595500      10.72599500       9.50480830      -8.81307689       0.05012526     -15.82865592
C       11.64430500       9.08975200      10.76258500     -21.06991624      11.19078816     -60.06018131
H       11.99797500       8.09827500      10.48827900       6.41468688     -12.31611444      13.41629443
C       12.30719500       9.75836900      11.90881500      -9.08935432     -30.97876481      28.69616389
C       10.08925260       8.97572600      11.01948500       4.23241043       4.19086335       7.69853436
O        9.59728800       9.57312500      11.99489500      -9.20224009     -10.08729009     -14.63651776
H       11.91970500      10.75594500      12.04563500      -9.56197903      10.10677195       6.92557615
H       11.97062500       9.07634900      12.77836500      20.22593930      30.90635960     -15.80625889
H       13.38842500       9.84404400      11.82674500       6.92446223      -8.39920587      -0.35404726
N        9.43658600       8.16453500      10.13280000      59.72541090      14.67159459       7.23556763
H       10.12926390       7.78254500       9.42297200     -27.99723438       4.69119402      14.28811953
C        8.03785500       7.91640500      10.00316200       9.16802833     -42.97089260     -69.07741482
H        7.45277500       8.80925200       9.83092800      -0.92730337      19.26582962       1.66056788
C        7.94363500       7.11688500       8.53955500      10.73117505      54.16680009      40.80323940
C        7.28153500       7.16654500      11.10633500      18.06812182       8.77891253     -74.09008324
O        6.61108500       6.20523500      10.80634500     -24.98607825     -49.54613893      -1.61482580
H        6.93713500       6.72049500       8.57236100      -2.51046996     -12.33957800     -13.19824928
H        8.06636500       7.97860500       7.81059500      -3.53554287     -26.66964752       8.24227261
H        8.78232500       6.39016500       8.45133500     -16.69585941       4.41485734       0.32689234
N        7.19249500       7.83109500      12.19718500      16.50483289      65.96055419      90.17067611
H        7.86265500       8.63586900      12.39229500     -16.73674287     -24.19827164     -10.60441261
C        6.34044500       7.34138500      13.28143500      22.17768040       0.40765674     -18.64594147
H        6.19364500       8.15379500      13.98406500      -9.98521178       1.48129684       4.95191203
H        5.47069500       6.90711500      12.79717500     -13.59191558       3.34247811       5.91214021
H        6.89004500       6.52725500      13.72922500       0.58548441     -12.18493185      17.49136870
42
Lattice="20.0 0.0 0.0 0.0 20.0 0.0 0.0 0.0 20.0" Properties=species:S:1:pos:R:3:dft_forces:R:3 dft_energy=6.494117092923261 energy=-620666.5485358111 pbc="T T T"
H       14.56236500      11.63736500      10.54412200     -12.82081787     -12.53842570     -27.35020910
H       15.10103500      10.78666500       8.89639700     -28.59780657      22.30151583      33.14227042
H       13.99805500       9.96380000       9.92940300      -9.31978301      24.22256471       2.00336093
C       14.21260500      11.03543900       9.64006800      29.61906369     -21.88592651     -34.30347935
O       12.90824500      11.09540900       7.55577000       7.98514523     -22.04436476     -18.69713468
C       13.10598500      11.58773500       8.65095000      16.48575394     -15.04594493      15.42716844
N       12.34983500      12.62192500       9.04206500      -8.30563605      49.71856051      63.16637668
H       12.53283500      13.02546500      10.00519600      -4.73417499     -15.77426314     -34.70840342
C       11.34899500      13.36951500       8.24960000      24.76447801     -16.95289198     -39.83258297
H       11.06946500      14.19861500       8.86984900     -10.02208985      13.16269844      12.67221536
C       11.92371500      13.93797500       6.88275000      34.34779940     -56.14413780      18.73659612
C        9.98138000      12.57946500       7.97322000      53.47189967      46.48284157      20.94145920
O        9.16948500      13.11173500       7.25506000     -29.56727797       0.67389461     -22.72089724
H       11.08806500      14.25230500       6.30281000     -13.24233232      14.28930456     -14.59907087
H       12.79479500      14.63345500       6.92297000     -20.34740467       1.60023810      10.77870653
H       12.38949500      13.01867500       6.40378000     -15.23566791      19.66494705       2.40878270
N        9.80376300      11.57043200       8.80818700     -74.29509308     -19.06271582       2.54459876
H       10.51253500      11.23130200       9.39218800      33.21526815     -11.76811010      24.57783610
C        8.46641700      11.05132500       9.14874900     -39.84384073      18.04679132     -11.70953417
H        7.56996500      11.75363500       8.93390400      42.25774276       6.25996963      18.88081402
C        8.02386500       9.95794500       8.16963000     -12.88006927     -52.22667225      -9.67362052
C        8.49391100      10.49028830      10.59406900      40.65084480     -32.23856807      -9.06233568
O        9.60928400      10.02801100      11.01274000     -60.48548785      20.84132434      -1.08313099
H        6.89862500       9.66153800       8.05818000      34.76753632      28.35890492       8.52676228
H        8.43566900      10.23051300       7.17425000      -7.52015210      -7.52611279       8.57238586
H        8.43474700       8.98575500       8.52553000       7.31700275       5.97801592     -12.90187378
N        7.24880500      10.33063200      11.13692000       0.27644333       4.63100645     -31.06053175
H        6.49487500      10.70553800      10.54259400       9.04424030      -3.41267917       6.83436455
C        6.77694500       9.51499500      12.24643000      31.08873541      26.89172177      29.34709977
H        7.70123500       9.48561500      12.90053000     -21.50067391       1.84882142       1.06608318
C        5.58206500      10.29827000      12.83975000      17.07980848      56.19224993     -15.95367637
C        6.43581500       8.04961500      11.97898000      38.90529856     -10.16280008     -16.86188183
O        5.31141500       7.66182500      12.17650000     -21.79183529     -23.37301814       1.76483849
H        4.89896500      10.52989850      11.96331000       3.49896106     -12.52408686      23.49116543
H        5.05722500       9.88532500      13.69719000      -1.97880715     -10.05862427      -3.40759540
H        5.94246500      11.37407600      13.15018000      -7.85214954     -42.21709630      -9.06283339
N        7.55646500       7.27888500      11.58897000     -63.17336835      17.21537568      15.66974367
H        8.35998500       7.85706500      11.50068000      30.58877210       0.14506283      -3.25234488
C        7.57740500       5.84124500      11.61733000      21.77927399     -35.34748902     -37.55531467
H        8.11317500       5.41537500      12.48736000      -6.83025250       5.76443832       1.20106142
H        6.57531500       5.36654500      11.51973000       6.18628459      16.89079651       8.65254115
H        8.13815500       5.39950500      10.70656300     -12.98553676      19.12244123      23.38996404
42
Lattice="20.0 0.0 0.0 0.0 20.0 0.0 0.0 0.0 20.0" Properties=species:S:1:pos:R:3:dft_forces:R:3 dft_energy=18.770256821182556 energy=-620654.2723960829 pbc="T T T"
H       11.10740500      12.51945500       7.77801000     -33.71712750      37.72050757      21.29317551
H       11.09679500      11.07337500       6.81134000       3.24362307       4.68810110      -0.10182697
H       12.49261500      12.16303500       6.90005000      17.46980119      -0.66464310      -8.18644594
C       11.69533500      11.72559500       7.47799000       9.60274400     -52.93046038     -19.40507041
O       11.99048500      11.48571500       9.79896200       4.37545516     -11.86852937      16.63139388
C       12.17538500      10.93773500       8.70039900     -26.09407942     100.81056846       0.98708684
N       12.83545500       9.85871200       8.45139000      36.42230941     -88.91087285      -1.16997103
H       12.79648500       9.57010410       7.46628000       3.49231305      -0.90794356      11.88144618
C       13.22310500       8.69859900       9.43052930     -44.46556841      49.61996618      -0.14743644
H       13.50739500       7.99467500       8.67961400       6.19276669     -28.09808026      -0.25350711
C       14.36070500       9.08388100      10.46461700      -8.28598829      16.31084381     -92.13592653
C       11.83973500       8.19610500      10.20412500      50.72737484       4.05437183      -4.43322528
O       11.75339500       6.99433500      10.47281500      -8.10907546      22.65038807     -11.40352439
H       13.74553500       9.43210300      11.23461000       3.79944860      17.49290924      47.95417232
H       15.00047500       8.23676500      10.57671000       5.15139964     -18.79335896      19.71448122
H       15.01150500       9.87213800       9.94882000     -21.25252905     -13.86826411      21.50256996
N       10.93906500       9.19393500      10.59371000       2.71365485     -98.82754261     -25.99904018
H       11.26483500      10.09762500      10.77217000      19.39878976      50.78366367      -2.17753634
C        9.80196500       8.68465700      11.30055000     -13.34756281      45.31321894      39.03979924
H        9.90574700       7.62331500      11.37029000     -11.58610165     -22.00051872      -7.84388990
C        9.83525990       9.25334100      12.74289000      74.90550100      13.11837840     -27.70441396
C        8.46814500       9.26018100      10.78383000     -36.59093889     -43.52228613      11.92813628
O        7.32974500       8.93283400      11.18761000      17.65549508      -8.28244506      16.19684412
H        8.96715400       8.99546800      13.20582000     -59.00230682     -11.26360813      39.67355221
H       10.72631100       8.92630700      13.31056000      -6.51082821     -11.12382223      -4.01585842
H       10.01647600      10.32983400      12.67750000     -13.43300333       7.87127589       1.27173649
N        8.58276500      10.18697800       9.85575700       0.16087111      15.47148848     -32.47521816
H        9.33519000       9.94509300       9.24374700      24.08403494      15.33224769     -14.94308450
C        7.42372500      10.84640500       9.24137300       5.04890657       0.03005717     -17.71000636
H        6.64802500      10.85458500       9.99361000      -6.59178932       5.17474469      11.31997991
C        7.88672500      12.20079500       8.81852700     -17.80338657      72.88609479     -55.03281854
C        6.84035500       9.98051000       8.06365000      -0.09639515      11.78887179     -56.96713974
O        7.06243500      10.15342400       6.82937000       1.99122624       2.09868458      55.41380504
H        8.47966500      12.79780500       9.53216950       4.38377406     -15.94348513      -1.81657681
H        8.30085500      12.24443500       7.77586000      21.45125824     -21.27717763      18.68943200
H        7.14579500      13.00566500       8.43799000      -8.32142063     -31.81705362      30.29678120
N        6.00755500       9.00306000       8.52427000      48.97554795      21.62142826      63.37861520
H        6.32568500       8.89421500       9.58307360     -30.65999228     -12.20448481     -42.33583610
C        5.78560500       7.84585500       7.70796000       1.15660036     -13.87525578       3.92158944
H        6.66407500       7.15770500       7.71785000      -5.50121991       8.27992095      -8.15708095
H        4.98849500       7.32401500       8.20914000     -15.79748969     -13.94612045      -2.23647963
H        5.48860500       8.14182500       6.68944000       4.76426285      -2.99189943       5.55772204
42
Lattice="20.0 0.0 0.0 0.0 20.0 0.0 0.0 0.0 20.0" Properties=species:S:1:pos:R:3:dft_forces:R:3 dft_energy=13.103459826321341 energy=-620659.9391930777 pbc="T T T"
H       13.82808500      10.07317100       7.87660000     -10.99047103       7.95606465       6.11451929
H       15.12513500      10.59175900       8.87532200     -23.16066113       9.69817430      12.98423323
H       13.57683500      11.63591500       8.84149300      12.08989260       0.36125697     -12.04912764
C       13.99390500      10.61601500       8.82527500      23.81361155       2.14608570      17.28635886
O       13.05455500      10.49721400      11.13731000      14.72977946      -1.26813401      16.04705658
C       13.24584500       9.97065700      10.04692500      19.59218633      46.29015602     -43.60689713
N       12.60510500       8.93406500       9.58172600     -48.82410138    -116.27743533     -27.32781207
H       12.63238500       8.57348500       8.60512000      16.34675016      26.52886619      20.92557983
C       11.78199500       7.89285500      10.32896800      21.36072211      44.62590270      22.54089149
H       11.58349500       7.10118500       9.63198230       3.52293417     -14.35519211     -10.01704163
C       12.49821500       7.37761500      11.61161000     -18.04951689      -5.32834802      -5.37912647
C       10.41515900       8.54289500      10.50115300     -17.21229461     -10.44783486       8.51210348
O        9.43995000       8.07895500       9.89388500       5.80199186       8.68901631       3.58518369
H       12.67413500       8.25381500      12.34828000      -5.64293740     -39.02640842     -20.17960470
H       11.83010500       6.51178500      11.95065000      16.56515082      29.08615660       7.80621786
H       13.44124500       6.86540500      11.30132000      -6.05371551      14.31229410       7.00144165
N       10.35156500       9.62222600      11.33766000      13.70496725     -19.27139925     -25.73667498
H       11.19197500       9.87176200      11.86591000      -0.18723205       3.86368897      -8.04175402
C        9.13918600      10.24889370      11.68154000     -69.99557451     -23.69570127      -6.43016335
H        8.22369500       9.48807300      11.59736000      41.40831469      22.77683056      -4.52750610
C        9.22316700      10.63256000      13.10220000      15.55242590      17.18681651      18.40372175
C        8.53630500      11.45260500      10.78415000      75.34099879     -65.67436993     -39.72130884
O        7.60067500      12.10284500      11.13808000     -38.23753529      31.44163675      12.59507003
H        9.26067800       9.82612500      13.86616000      15.13636257       5.88154279     -13.81161977
H        9.95519000      11.45995500      13.16166000       8.75428765     -12.80458298      15.50632831
H        8.33019500      11.12347500      13.30071000     -47.39744617      26.36829490      15.32490052
N        9.11935700      11.46320500       9.51438600     -32.71222376      26.63077860     -10.17339423
H        9.82535571      10.81828100       9.22936100      12.29999806     -18.12026306      11.67345006
C        8.64943500      12.27938500       8.34425000     -11.12505466     -30.70419383      -0.30491837
H        8.05960500      13.05590500       8.85748900       3.78841599       9.08441275     -15.64296203
C        9.82020986      12.64023500       7.50536000      35.44774238      60.49556059     -15.34326846
C        7.58571500      11.47239500       7.33432000     -37.91461516       3.20832109      72.01853580
O        7.37045500      11.50521500       6.13384000      26.68149780       4.54092062       1.39896110
H       10.30846300      11.76433500       7.05180000     -10.65111456       1.14026830      -9.08434165
H        9.60029500      13.48821500       6.74364000       0.73673546     -39.19278635      16.21426403
H       10.65929500      13.10637500       8.07767000     -11.57188131      -4.03125193       4.89839617
N        6.71284500      10.86335000       8.21914000     -11.67016754     -12.59329249     -49.80720060
H        6.73112500      10.99328000       9.18470300      20.43308219      14.51185281      41.12082690
C        5.50365500      10.12237800       7.86375000     -15.39671322      79.78663131     -16.73330629
H        4.87486500      10.14477800       8.74542600      -4.97170200     -11.66542742       8.33558171
H        4.90996500      10.72342700       7.08663000      18.04619881     -23.10520182      11.97364135
H        5.78241500       9.17665500       7.54318000       0.61099806     -49.04973071     -18.34944747
42
Lattice="20.0 0.0 0.0 0.0 20.0 0.0 0.0 0.0 20.0" Properties=species:S:1:pos:R:3:dft_forces:R:3 dft_energy=11.9373763455078 energy=-620661.1052765585 pbc="T T T"
H       12.69398000       7.45548000      13.38543000       1.37919483      -4.43167289       4.55198878
H       13.29465000       8.76425000      12.27198000      -8.07671235     -21.55601472      -4.01994676
H       12.50896000       7.21163000      11.61276600      40.34972918     -29.79278880     -22.65607621
C       12.58299000       7.90848000      12.40413000     -10.37092654      32.08783251      -7.46507200
O       10.80038000       9.41258100      12.89587000      -1.95614941      27.10621183      -5.98891818
C       11.19359000       8.43382000      12.25614000     -41.61581309       9.54889632      46.09237484
N       10.28390900       7.62898000      11.60299000      47.49378895      20.13125556      -3.01570664
H       10.79383600       6.80155000      11.35969500     -18.50456763     -22.04152069     -20.31600143
C        8.85921000       7.79580000      11.55366300     -34.78353419     -11.10167406      13.63220653
H        8.46238000       6.90289000      10.96958300       8.25535532      24.02561306      10.28874485
C        8.25999000       7.65046000      13.02294000      16.41275622     -15.79263107      -4.34376751
C        8.36020000       9.08526600      10.73137410       9.84094647       4.14090257      46.37180444
O        8.27459000       9.05892400       9.52162000       1.65202383      -1.63793384     -15.79630466
H        8.61757000       8.42167000      13.77457000     -10.16501608     -12.87047054     -22.70489936
H        7.14345000       7.60703000      12.93719000      17.17686227      -0.80774945       8.70508529
H        8.70946000       6.65352000      13.38748000     -22.46647173      26.64973905      -6.33629728
N        8.10402000      10.22297800      11.50200200      -9.01451980     -18.28735200     -16.38301202
H        8.08936000      10.12885920      12.51481000       4.47316072       4.86681517      -3.40033118
C        7.89978000      11.52186000      10.75743200     -29.73910703     -75.10849629      41.61498357
H        7.27776000      11.17929000       9.93258200       2.99795492       6.26819372     -14.22934214
C        7.18159000      12.57444000      11.50648700       2.58586144      17.91845279      55.29601326
C        9.17191100      11.98087000      10.28489500      58.66433683      35.79104499     -61.19164603
O        9.07713000      12.82778000       9.36432000      20.48925252      -5.61556326       7.93762561
H        7.81100000      13.00283000      12.34501000      -3.21950775       1.14374636     -23.61215679
H        6.82195000      13.34648000      10.83201600       1.05237715       5.93544971       0.16925992
H        6.36776000      12.17678000      12.10989000     -15.43676716      -7.49013534      -7.91716018
N       10.35261800      11.48907000      10.77929000      12.09214415     -39.20712519      19.01187812
H       10.28466400      10.66576700      11.50076000       6.56600311      41.08527606     -31.15438596
C       11.73350000      11.70664000      10.09518100     -58.79788949     -63.29281917     -12.58464179
H       11.45634000      12.48289000       9.43988000       3.99858071      36.68822969     -20.48380139
C       12.81502000      11.96191000      11.04920200     -20.06015388     -24.74136997      91.05624753
C       12.01273000      10.45189700       9.17599000     -23.55918604       4.87890245       2.92831083
O       12.74394000       9.53879100       9.48164000      42.45872351     -22.30376738      36.01667432
H       13.63224000      11.24326000      11.22548900      -5.12382404      -4.64821306     -24.29781399
H       13.20579000      12.91243000      10.81891900      17.17935083      33.76749119       9.96750746
H       12.29696000      11.85152000      12.13303000      26.68813396      24.41382823     -45.49346170
N       11.31407000      10.34326700       8.02710000     -36.32478160      43.58497411      10.64452581
H       10.52776700      11.00737000       7.98320000       5.65009497      -8.27913883     -10.39706826
C       11.26146000       9.09396300       7.31284000      13.82501059       5.04296958     -14.42499026
H       11.98399000       8.45777000       7.88095000       1.63111993       5.89216064     -24.10145485
H       10.29741500       8.57471000       7.48120000      -1.10369360       9.62012836     -14.73582311
H       11.54388000       9.39172800       6.22543000     -12.59424051     -31.58170706      32.76483901
42
Lattice="20.0 0.0 0.0 0.0 20.0 0.0 0.0 0.0 20.0" Properties=species:S:1:pos:R:3:dft_forces:R:3 dft_energy=2.288381218444556 energy=-620670.7542716856 pbc="T T T"
H       11.72295000       7.30914500      13.40089000       5.43483464     -18.92276401       7.23310277
H       11.90375000       8.80853500      14.27934000      11.35112245       9.07904457      -1.80033008
H       12.74342000       8.48754500      12.52872000     -36.67235031       5.50539120      38.81891002
C       11.83555000       8.37607500      13.28461000       2.93532619       1.94154987     -43.62088046
O        9.60336100       9.37321500      13.31702000       4.97046957     -18.92394904     -18.51558840
C       10.45799200       8.74595500      12.66312000      23.07522061      14.99155215       9.75611032
N       10.35277000       8.31090500      11.36668200      19.76389688      -7.73144259      -7.60770197
H       11.25870000       7.98739500      10.93708100     -32.68793069       6.67094919      13.94327638
C        9.10142200       8.11039500      10.57329000      39.36852601      -6.61916346      13.60542490
H        9.44383100       7.57748500       9.66987800      -2.70998127       8.15232898       0.14748384
C        8.14656000       7.16801500      11.29074200       7.90218142      -3.75492710     -26.01065345
C        8.53634000       9.44283500      10.10375200     -32.20562430     -22.31526216      24.43717328
O        8.04023000       9.47999500       9.00085000      -1.77668877       6.94605344     -52.75637977
H        7.72238000       7.59415500      12.13968000       3.07416407      17.60442037      58.17610530
H        7.21646000       7.20420500      10.75362900     -11.28679913     -22.14758069     -29.14837057
H        8.60019000       6.16037500      11.45717000     -13.37398893      15.20011707      -3.68392023
N        8.38692000      10.43710700      11.00592400      -5.92383644      14.08334669     -67.38756490
H        8.56593000      10.19280000      11.93172000      14.09033836       0.73961863      59.23836439
C        7.98751000      11.77932500      10.51772900      23.72947456     -19.24829120      15.66144847
H        7.63384000      11.70495000       9.48554700     -12.28743677     -12.24975288      -0.58210471
C        6.90757000      12.28789500      11.44336000      -7.34840599       1.68486095      30.43068937
C        9.21335200      12.61606500      10.29002460      16.24756332      87.31013703       6.41064594
O        9.04490000      13.83962500      10.00084400       9.57617567     -46.92082791       2.87033926
H        6.17279000      11.49311500      11.27416800      -7.80436921      -4.59999427      18.60920561
H        7.27798000      12.30761500      12.58762000     -22.63213864       4.45137991     -56.49431357
H        6.32469000      13.17642500      11.09547000      24.37602584      -1.49077707      10.45325044
N       10.45802400      12.06908500      10.43987780      12.89820020     -25.54375242      -2.19806102
H       10.50031400      11.07711000      10.75847200      -4.15957861      21.49771134      -7.05607144
C       11.81292000      12.65872500      10.11695200     -13.90156340     -61.05915990       0.22774342
H       11.63274000      13.69545500       9.96390800       4.17405965      30.74946190       8.46675246
C       12.77177000      12.13015500      11.25371500      13.81375282      24.41359122     -34.80107261
C       12.33487000      12.10636500       8.73770000      65.63087940      -0.64855160       4.12163402
O       13.58309000      12.04326500       8.48537000     -55.82974987      10.37324920      15.73029860
H       12.24665000      12.34930500      12.19796000      13.83804590      -4.06918468       0.69774093
H       12.86515000      11.03231400      11.03195700       1.63916627      16.24957786      13.30620533
H       13.82721000      12.61343500      11.13660300     -41.19026954     -18.58811211       9.57437443
N       11.40187000      11.69577700       7.87672000      -6.45497784      -7.59222550     -33.26551333
H       10.44860000      11.67607100       8.23467000       0.11435046       0.44295043     -10.78677657
C       11.75784000      11.28860100       6.47479000     -14.84449017      18.91174325       6.09963534
H       11.67423000      12.15988500       5.72066000      -7.44241426     -27.29747535      24.35102175
H       12.80912000      11.03675600       6.49250000      11.12631079      -3.61749941       2.86478147
H       11.18668000      10.37812100       6.18370000       1.40224363      16.34177304       0.48367392
42
Lattice="20.0 0.0 0.0 0.0 20.0 0.0 0.0 0.0 20.0" Properties=species:S:1:pos:R:3:dft_forces:R:3 dft_energy=9.54529205081053 energy=-620663.4973608532 pbc="T T T"
H       13.96103500      10.89331800      13.98427000      -8.81794736      11.89661453       5.59637765
H       13.05845500       9.52720400      14.67317000      -3.94565736     -23.92251562      35.68664403
H       12.09598500      10.58265300      13.60276000      29.61847118       5.52643730      18.09277041
C       13.13758500      10.19002700      13.87100000     -25.78786819      -0.49560122     -64.39916131
O       13.48439500       8.18555000      12.53617000       3.41741928    -106.27295499     -15.43214555
C       13.46973500       9.34502600      12.59101000      10.97681951     155.13556978      10.71206055
N       13.82929500      10.30378900      11.54507000      -5.46719775     -51.80148421      53.39380633
H       13.41304500      11.20133000      11.66243000      -2.34890324      17.40889075       0.07352317
C       14.37161500       9.90270440      10.30761300     -32.22375522      24.32933573     -37.26367928
H       14.79316500      10.85384900       9.81043900     -11.21389621     -28.72116798       9.34272515
C       15.39183500       8.82840000      10.39044600      -2.52346971       5.91428511     -61.28858132
C       13.17628500       9.39707100       9.29613200      46.35426603      37.16781052      -6.96340225
O       13.43061500       9.21058800       8.09760000      -6.06929863      -8.88680933      16.81969483
H       15.64624500       8.71546000       9.32569200      14.17056475      -2.57836021       0.77387661
H       16.25572500       8.97301500      10.96587000      29.80997170      14.70382735      22.74495331
H       14.96567500       7.90413000      10.61323000     -19.80134377     -38.50227054      19.69243970
N       11.94064500       9.49030500       9.81320300      -7.60020074     -18.42908135     -11.49630023
H       11.76838500       9.59100000      10.78542000       0.52641195       1.93598023      24.17777065
C       10.81988400       9.16852900       8.97970100     -44.29077678      22.66330488      31.03007653
H       11.12894900       9.57573900       8.07195000       6.96852157       7.43810076     -52.79761874
C       10.46269690       7.67846000       8.84734300     -12.21775712      15.07225255      -2.70895029
C        9.54675400      10.07314800       9.48823180      10.01929319     -55.92158954     -11.64502124
O        9.30965500      10.09193800      10.68658000      -3.61466719      18.79655853      10.38600010
H        9.82647800       7.51726000       7.96602000      -5.96220765       1.62658127       4.75959384
H       11.35091900       7.13423000       8.64168800      28.48866549     -11.80012956      -6.39902081
H       10.03673900       7.20924000       9.73702000      -7.06463919       6.86915697       4.16027778
N        8.71059500      10.45533800       8.47901200      -4.42982425      -3.19201511      39.80710487
H        9.00787500      10.18793100       7.57846000       0.99016199      -8.87382143     -34.25809278
C        7.32689500      10.94008000       8.62033700       2.93881017      -3.92170794       6.98246935
H        6.72484500      10.39513600       9.40614530      20.42135042       8.04744216      -4.99198968
C        7.43462500      12.41630000       8.83007400      23.42124878      15.67626132      14.54692964
C        6.59475500      10.65094300       7.29386000       5.20460740      17.83064221      51.54042254
O        7.16504500       9.89196300       6.56302000       5.94600831     -33.50808856     -58.16709909
H        6.53845500      12.86577000       9.20393900     -18.94907164      13.49142521       1.01436145
H        8.25784500      12.69930000       9.50922880      -7.69894912      -8.61233315       6.79269896
H        7.78093500      12.83004000       7.89108000      -7.10859188      12.54115126     -12.08064938
N        5.36854500      11.22122000       7.10233000      23.15355096       0.27002759     -22.22638506
H        4.94126500      11.70130000       7.85438000      -7.98870032      13.26615139      21.44651813
C        4.51519500      10.58060500       6.14389000      11.96285760       7.90615127     -60.52293474
H        5.16816500      10.14338000       5.32683000      -9.84426455      11.20137046      18.07653552
H        4.14638500       9.74753600       6.66084000     -35.62727413     -34.91329476       8.33061644
H        3.74427500      11.19020000       5.57665000      16.20715386      -6.36271156      26.66087831
42
Lattice="20.0 0.0 0.0 0.0 20.0 0.0 0.0 0.0 20.0" Properties=species:S:1:pos:R:3:dft_forces:R:3 dft_energy=15.995623400318436 energy=-620657.0470295037 pbc="T T T"
H       11.88413500      13.17418000       9.86395000     -38.67990624       2.77749231      50.65165155
H       11.86491500      13.33317000       8.07596000      18.37397755       2.18394734      28.67447788
H       13.38829500      13.55522000       9.15605000       7.79639397      16.03615432      -5.69947509
C       12.45087500      13.04438000       9.01907000      18.77653156     -51.61389428     -91.46472668
O       13.95344500      11.18485000       9.48405500     -37.60105675      -6.85984265     -18.42410423
C       12.93721500      11.53843000       8.85695000       3.60350423     -13.71492149      -6.94829314
N       12.21009500      10.67042000       7.91698000      39.10284273      61.02669014      63.33524317
H       11.45797500      11.20754000       7.45684000       5.40441497     -23.15023288       5.51651862
C       12.27304500       9.19769500       7.89248000     -13.54439596      18.81042336     -56.59622598
H       11.60021100       9.08506900       7.04896000     -16.46051285     -15.50526178      -1.79414423
C       13.56309500       8.53810900       7.36617000      18.59143019      15.01999282     108.52427118
C       11.61443600       8.40990500       9.03996000      11.02622332      31.67117667     -19.69018814
O       10.58277600       7.81079000       8.77187000      -2.35459137     -12.90471785      18.02273525
H       14.18914500       9.10738300       6.73557000      13.69394649      23.97821194     -16.33371485
H       14.11787500       8.30031800       8.36182000       1.12709672       8.28592904     -38.67338858
H       13.40343500       7.59785000       6.95605000     -17.93895377     -42.74467076     -23.31803284
N       12.25976500       8.50764200      10.25869870     -25.86062891      -6.32976778     -42.98297989
H       13.17338500       8.91501870      10.19059770      15.48511631      12.20685486       4.03234216
C       12.06967500       7.47731000      11.17815100     -28.26173263     -76.90168065      71.65722076
H       11.85111500       6.44478000      10.72958200       6.19567001      27.98218453      -4.86463472
C       13.28750500       7.27003000      12.09342000      17.56389241      32.86473687     -26.92336201
C       10.74409310       7.55351000      12.10393000       2.95303051     -15.08706540      -5.00542789
O       10.45077200       6.76105000      13.01929000      22.14367010      20.96006414     -21.90536097
H       13.72174500       8.29894600      12.25432000      -3.75128907     -16.64845829       5.58907788
H       12.98460500       6.85960000      13.06109000       5.88297667      -8.95609792      -4.61596844
H       14.05955500       6.71594000      11.48963000     -10.63484413       1.37272458      22.71994921
N        9.88499900       8.46392100      11.61518000      12.95863662      38.22829207     -12.16253482
H       10.24548800       9.18654300      10.97458100       7.19586919     -16.24448224       5.68885724
C        8.71893500       8.96583760      12.30624000      18.40775085      18.26104438      -9.24631128
H        8.78925500       8.42004400      13.26443000     -22.13928550       6.87548502      -0.36432501
C        8.92578500      10.53293000      12.42761000       4.39076572     -25.07092625      49.03349582
C        7.48626500       8.69672900      11.43908000     -36.76904860     -27.80786691      -9.94073768
O        6.35951500       8.94848730      11.88966000      13.00283817       2.16437068     -12.59376650
H        9.90573500      10.75656000      12.92300000      -6.76413979      -5.35527186     -18.50895224
H        8.77040500      11.00808000      11.48761000       5.83295664      10.46632130     -24.69953848
H        8.23173500      11.01429000      13.11977000     -12.76666209      -6.24609295       0.54602535
N        7.73153500       8.09503000      10.19019600       3.26882862      21.52603351      14.14864173
H        8.75646500       7.97105000      10.03120100     -25.64187274      -6.68887866     -10.67308498
C        6.67541500       7.80766000       9.12029000      43.14426220     -30.45901154      32.34782766
H        7.06877500       8.23780400       8.13489000     -11.69752983     -26.32124929      23.42812194
H        6.47515500       6.60950000       9.23028000       5.49105237      64.52856636     -22.22152644
H        5.81085500       8.38890100       9.42619100     -10.54699800      -2.61677882       1.73447807
42
Lattice="20.0 0.0 0.0 0.0 20.0 0.0 0.0 0.0 20.0" Properties=species:S:1:pos:R:3:dft_forces:R:3 dft_energy=-0.5208198946202174 energy=-620673.5634727987 pbc="T T T"
H       12.34336000      11.80853500       7.56259000      18.08885981      10.34598170       8.43161638
H       12.54929000      10.67881200       6.22162000     -18.77522803      -6.40323951      13.38892029
H       12.11508000      10.10859600       7.94685000      15.07177854      -6.53231276      -2.92962621
C       11.98989000      10.86786000       7.17076000      17.41232733      15.16918784       2.51871775
O        9.79241130      10.13219900       6.57576000      20.95745708      12.22581531       7.44050637
C       10.52971800      11.00245500       7.12426000     -61.18560239     -60.78375940     -42.08141059
N        9.92882500      11.99090500       7.78107000      -6.69940171      61.68509169      52.27928750
H       10.44905200      12.64090500       8.39153000       6.11431784     -14.95529029     -14.04163371
C        8.50438000      12.34313500       7.89659000     -42.06896780     -33.41980398      -6.45106724
H        8.40424000      13.31995500       8.32475000      12.79344372      23.96434711      -1.96427870
C        7.77803000      12.25305500       6.55460000      26.88804818      -0.87992239     -16.05855135
C        7.61120000      11.59565500       8.95848400      45.40328106     -31.95131729       7.13878639
O        7.13380000      12.21591500       9.89597800     -12.61260845      -1.75532272       0.50975757
H        7.37146000      11.25079500       6.35406000      17.93575420      -1.22742830      -5.55663181
H        6.88574000      12.84953500       6.48009000      -6.50191680      22.63569372       5.47296884
H        8.58409000      12.59799500       5.84636000     -27.55995905     -11.01747782      -4.30187677
N        7.63058000      10.21279500       8.81705800      11.09462314      -3.64460100       6.08248799
H        8.22204000       9.83870570       8.03841000     -11.32176930      10.65969416      10.77094459
C        7.35336000       9.25103100       9.92345500     -17.67338900       4.12207248      -1.66194251
H        7.14011000       9.81491940      10.84980000       3.59324188       5.64828188      -7.02507110
C        6.08407000       8.37263500       9.59744200      10.89994674     -16.00593611      17.09710989
C        8.61615000       8.34308500      10.18019500     -21.08425507     -12.82152888     -14.98088689
O        8.45068000       7.13479500       9.98096500      20.67447239       8.32279526      13.07500637
H        5.21428000       8.94487900       9.34106200      -4.11793673      26.75911713     -20.75576531
H        6.34892000       7.65995500       8.78901700      -8.13347519       4.15032354      10.19349230
H        5.57136000       7.84330500      10.45974000      33.26527633      -0.96111458      -8.48084244
N        9.78841610       8.92769800      10.62033000       9.75658433     -58.06518668     -13.39022382
H        9.98495200       9.86992398      10.38243400       1.33336980      30.58948312      -0.92472711
C       11.05682000       8.10381500      10.73147000      -8.22709240     -12.81749979     -13.85748036
H       10.83223000       7.21000500      11.30083000      -9.00583355       0.31024981      21.95442113
C       11.62099000       7.40992500       9.44342912       1.37584120      41.73360488     -18.91506133
C       12.06472000       9.04173200      11.41272000      -3.31777028     -37.83782535      -1.07935431
O       11.95400000      10.23781700      11.21205000       8.97931262      25.42524962       5.04035067
H       12.40065000       6.68004500       9.53498210      16.26747179     -13.33109092      26.66858099
H       10.87511000       6.86678500       8.89476700     -21.80001198      -1.00024539      -5.43933774
H       12.09706000       8.12667500       8.75358200      -8.31085018       4.72995629      -0.79543464
N       13.01826000       8.45750500      12.21692000     -31.65351975      30.94499152     -19.18418119
H       13.09256000       7.46893500      12.29234000      -5.52866515     -19.36063186      -0.08508619
C       13.77935000       9.26859600      13.12544000     -11.73490561     -33.53961031      25.89321718
H       13.67724000       8.83375500      14.15364000      -9.33886196      16.23192095      -6.75314273
H       14.78572000       9.04906300      12.91617000      44.66097953      14.08891632      -9.74991262
H       13.46116000      10.29672800      13.02629000       4.08575137       8.56832121       2.50738888
42
Lattice="20.0 0.0 0.0 0.0 20.0 0.0 0.0 0.0 20.0" Properties=species:S:1:pos:R:3:dft_forces:R:3 dft_energy=7.918306008330546 energy=-620665.1243468957 pbc="T T T"
H       10.89563300       9.64049090       6.84708000      -2.36338428       2.08183348      12.30616021
H        9.53554700       9.64966030       5.70109000       3.35307226      -9.12779663      28.27026483
H       10.12934900       8.09835000       6.39200000       3.05586724       9.88697296      -1.23625675
C        9.92723400       9.15623900       6.66121000       1.21361087      -8.96471307     -69.89828371
O        9.05871000       8.02447000       8.51063000     -16.89518112      32.43243865     -11.03808545
C        9.00604000       9.06480100       7.80051000      19.43517012       5.83490009      33.33294143
N        8.31682000      10.21358400       8.14378000     -10.78469092       2.98733707      18.91174325
H        8.43919000      11.14860000       7.68479000       4.74903524     -34.82986879       6.46892562
C        7.65710000      10.26624500       9.47364300     -29.00628572     -21.19635872       0.39148466
H        7.02577000      11.14822000       9.52150000       9.59694921      18.54936169      -2.92966176
C        6.52296000       9.16391700       9.62307900       7.63883265      51.52940178      32.31440987
C        8.72040000      10.38941400      10.61871800      -1.81161155     -16.77229371     -37.07976294
O        9.41366000      11.41844000      10.60575300      -7.38703790     -24.28691173      24.53944120
H        6.09093000       9.31654800      10.66604100       8.61030675     -10.26127590     -23.52458322
H        5.73731000       9.41800100       8.91099000      -2.31297319      -5.17114221      -4.76326742
H        6.92554000       8.19983000       9.47295700       4.45209092     -31.03825322      -3.24516361
N        8.85072000       9.23028400      11.36975000      67.01641413      72.54445122      20.43888883
H        8.38144000       8.43142000      11.10071000     -29.78994473     -45.18902800     -20.61628752
C        9.97766600       9.09373400      12.36661000     -45.52936804      23.35844230      -7.21168931
H       10.06175100      10.18813400      12.66500000       7.19188749     -25.26278228       3.93110521
C        9.48168500       8.21833000      13.51023000     -33.52230890     -27.55344140     -12.76298850
C       11.40352800       8.72285300      11.93914000      10.61991277       2.53340025     -29.29092944
O       12.20966000       8.76364500      12.84991000      23.66441653      -2.98738447       6.86946508
H        8.51870000       8.46225000      13.96469000      -2.87235380      17.85967540      -5.46526616
H        9.34208000       7.13086000      13.34581000      -1.99439026       2.82202566     -30.76036415
H       10.12661900       8.05337000      14.29891000      47.28486851      16.86851799      43.50723627
N       11.72081000       8.46491000      10.60029300     -59.87247287       0.03525138      13.28416381
H       10.91497100       8.64188600       9.98264010       0.10759841     -10.36052200       6.21860030
C       12.94456000       8.72536500       9.90093930      16.79990487      68.79028254      31.35098211
H       13.74976000       8.76989200      10.70962500     -13.41819048      -7.23228510     -23.03315211
C       13.24321000       7.85344000       8.74717000      22.83027532     -49.59839867      41.73159033
C       12.75549000      10.24672500       9.34562000      24.95076441     -51.34169335      14.65263414
O       12.63548000      10.48801600       8.17660000     -14.21630683       2.26535876     -60.07961577
H       12.71190000       8.02624000       7.85895000     -32.47889175       4.10573094     -24.15087052
H       14.26269000       8.00984000       8.46803000      25.18978456       3.02083781      -4.77407488
H       13.18687000       6.80406000       9.14607800      -3.44828926      11.26687881     -17.88266494
N       12.69480000      11.17917000      10.26773900      59.89131482      28.80506796     111.05857204
H       13.30803000      11.02653000      11.19188000     -49.26611682      -4.44485040     -55.18225057
C       12.60833000      12.58428000      10.02010090     -22.04400925      45.48220393      12.74450206
H       13.38221000      13.19594000      10.51457500      -1.08541810     -12.12413991       9.98761739
H       12.68024000      12.95492000       9.02695100       7.34692471     -14.67728272     -37.93807871
H       11.62217000      13.02130000      10.29428900       5.10025383     -10.64008195      10.55241358
42
Lattice="20.0 0.0 0.0 0.0 20.0 0.0 0.0 0.0 20.0" Properties=species:S:1:pos:R:3:dft_forces:R:3 dft_energy=-4.970834126812406 energy=-620678.0134870309 pbc="T T T"
H       11.33392500      10.56643500       6.78381500     -11.76290783     -13.78341611     -10.06152758
H       12.91920500       9.52859200       6.68402500     -22.97781131       5.88116358      -0.85300093
H       12.87050500      11.22720500       7.05910500      -0.52148816      -3.23577819      14.34559339
C       12.29346500      10.29257200       7.21076500      28.80779353       7.33038172      -3.03272364
O       11.85185500      10.75944500       9.54992180     -15.51320147       4.05399262       5.81995689
C       12.12799500       9.93917800       8.67432400      25.29714810     -14.49597344      -4.16220937
N       12.41606500       8.62424100       8.96026300       9.99782048      -7.46852043       0.27972586
H       12.69755500       7.99574500       8.19049500     -10.03162933      14.53033925      12.21266150
C       12.30446500       7.95536500      10.31633000       1.83240879     -27.99154625     -62.84499709
H       12.60967500       6.90128500      10.01812100       1.95536729      19.59360836      18.00223427
C       13.16826500       8.59868100      11.37148500     -48.06129886      42.37600855     -12.68288061
C       10.81492500       7.78336500      10.52222500     -15.84986792      -4.58995708     -16.29437192
O       10.10208600       7.10321500       9.77815600       9.98863651      -5.77826760       0.74064605
H       12.97690500       9.74567800      11.29867500      12.73277029     -39.67592227       8.88121600
H       12.85811500       8.18867500      12.32501500       6.67548785      -0.22297724      13.73447445
H       14.15131500       8.34012500      11.11352500      41.02045503      -1.24247815       1.28319571
N       10.31095400       8.53427000      11.49565500      27.31619879      44.40939809      49.21373858
H       11.01786500       9.15250900      12.00818500     -36.56925288     -22.13549341     -18.08648976
C        8.90124500       8.65370200      11.75540500      14.13347338      48.48814594      18.69286858
H        8.42918500       7.73040500      11.49390500      -4.08692455     -23.29338426       5.87876982
C        8.57151500       9.12399100      13.21413500     -32.35505633     -19.67075368     -57.12545948
C        8.11451500       9.58495000      10.79005500      55.84479973     -52.14466832     -16.45790579
O        6.94327500       9.28836700      10.72781500     -64.06178384      20.09771927       3.36596536
H        7.46145500       9.22954700      13.07981500      14.51007527      -3.50648598      23.89573399
H        8.89423200       8.35745500      13.87638500      -1.44837677     -16.21947815      23.11823712
H        8.99088600      10.06740000      13.48254500      12.31457391      20.80079638       1.02857230
N        8.78646500      10.26615200       9.84321500     -12.91668663      10.12921638      38.25104461
H        9.78585700      10.22623900       9.81214300      20.40736708       8.40868609       1.72170347
C        8.02446500      11.06946500       8.93447100      38.93824234       8.50674716     -30.00087971
H        7.08777500      11.23401500       9.39838690     -31.61796891       0.45091145       7.58801865
C        8.71269600      12.41871500       8.61121500     -18.56109347     -30.83324338     -11.63825473
C        7.90860500      10.14409500       7.69973500     -24.60675079      14.75430954     -51.22876018
O        8.53764500      10.31411200       6.60419500     -12.09356619      -1.89672026      59.88941877
H        8.83660200      13.09871500       9.42273380       3.18462053       4.07080816      28.98305917
H        9.67783990      12.13562500       8.21624500      10.21536792      11.16049885     -13.27563161
H        8.05872500      12.95552500       7.92526500       5.49488001      -0.49660376     -15.19893205
N        6.91457500       9.17510900       7.80766500      77.42984763      37.90394991     -52.81954176
H        6.49466500       9.03629600       8.65719000     -31.15794105     -12.93386954      62.92735654
C        6.81622500       8.33253500       6.65003500     -11.19920186     -27.73143260      16.42887260
H        7.75204500       8.58321100       6.12361500     -17.29157298      -5.26466462     -17.93397666
H        6.78763500       7.23243500       6.87555500       1.41149869      16.50601792       3.08847921
H        5.84868500       8.61264800       6.22913500       3.17567357      -4.84117116     -25.67398700
42
Lattice="20.0 0.0 0.0 0.0 20.0 0.0 0.0 0.0 20.0" Properties=species:S:1:pos:R:3:dft_forces:R:3 dft_energy=3.5927354677114636 energy=-620669.4499174363 pbc="T T T"
H        7.23134500      13.46881000      11.07503100      -3.87006442     -22.19699636      10.84409637
H        6.53139500      12.08165000       9.90987400      13.22147583      47.65400473       7.77973248
H        6.50990500      14.01049000       9.75421200     -34.87407033      17.37322141     -26.99754476
C        7.01624500      13.13485000      10.05197120      40.74422500     -34.31912172       8.03376693
O        9.29642100      13.97093000       9.92599400      -5.42842364       9.42024969      -5.43095960
C        8.42388500      13.27547000       9.39915400     -28.63892704     -13.97728669       0.38145577
N        8.54929500      12.62482000       8.20310500      26.85593392     -40.97412043     -13.88378798
H        7.96559500      11.76275900       8.06925500       7.62116389      28.77188718       9.10092019
C        9.91765000      12.39861000       7.49774500     -40.46183283      18.66312438      10.98249579
H        9.73782190      11.67580500       6.69623500      -7.66805544     -13.25998924      11.18826405
C       10.22745200      13.62713000       6.63523500     -22.84864326      11.14393215      38.65359862
C       10.98850500      11.74463000       8.37620500      -2.26865314      18.83684948      -0.29906670
O       11.64354500      10.88414600       7.80266500      18.05627154     -17.21419065       3.31886050
H       10.93105500      13.34592000       5.89909500      23.18471719      -0.07088352     -22.43874207
H        9.25212300      13.87327000       6.20161500       2.78094074       1.13882612     -10.26803056
H       10.50716900      14.50939000       7.21873500       8.85542979      -0.09080739       0.19212859
N       11.14904500      12.13017000       9.68358400      14.65298965     -13.55754977     -18.64949656
H       10.65371300      12.94362000      10.00990200     -12.35415384      13.56015683       1.56456876
C       12.16375500      11.52437600      10.53286500      -5.54634577       0.25312553     -11.99591988
H       12.73398500      10.93832300       9.78713600       3.35905665      -6.52240593      10.65026134
C       13.13456500      12.55571000      11.19301500     -52.55160693       1.39371142     -44.12629490
C       11.50397500      10.54957300      11.54152500      12.71677241       3.31726071     -16.52687442
O       12.07469500      10.05933300      12.47847500      48.74553402      -6.92543395      52.96399667
H       13.38945500      13.23400000      10.35801400      -0.76382046       4.52473314      10.67876127
H       12.64348500      13.06603000      12.02473500       8.74850472       1.31103202       3.51449677
H       13.98408500      11.98878000      11.38971500      39.93982800     -16.58778485      27.14922835
N       10.24922100      10.20055100      11.30701500     -47.27823236     -28.25213390       4.40446465
H        9.94479700      10.26008600      10.35675100     -16.87325810       8.11321121     -14.71662565
C        9.41673700       9.25970000      12.16101500      -7.63507611      45.87030060     -48.16155222
H        9.95987900       8.45456000      12.64656500      13.73518547      -9.70220340     -10.32071691
C        8.79275500      10.07965300      13.31009500     -52.16801337      -1.49531572     -48.33693637
C        8.37287500       8.69904000      10.99621300     -16.12052832      16.92374029     -10.73891329
O        7.96063500       9.35251000       9.99402000      26.27704774     -22.76450627      49.14619198
H        9.42037600      10.33140300      14.10090500      39.51629900       6.04274215      28.60171716
H        8.31897500      11.01461183      12.94950500       7.79961725      -4.93308193      -3.80613216
H        7.95726500       9.53443000      13.73094500      -9.00293023     -12.11193412       8.20098623
N        8.01283500       7.41197000      11.24954500     -11.85739011     -42.68304930      24.74990217
H        8.37261500       7.03503000      12.15064500      -6.41289749       7.49883345     -20.85376713
C        6.93201500       6.56651000      10.60528400      24.37412979      18.16399059     -54.26622393
H        6.76940500       7.03337000       9.57037000      -4.17533948      -5.91576640      32.56302874
H        7.15510500       5.49061000      10.31217200      15.98555363      24.19068746      19.25469035
H        6.01591500       6.52239000      11.17822500      -8.37261384       9.38887014       7.89995357
42
Lattice="20.0 0.0 0.0 0.0 20.0 0.0 0.0 0.0 20.0" Properties=species:S:1:pos:R:3:dft_forces:R:3 dft_energy=22.8976392603945 energy=-620650.1450136437 pbc="T T T"
H        7.65368500       9.03182200      13.57241500      -5.12407290     -18.69867522     -31.71419319
H        7.61082500       7.23294000      13.45699500       3.30663101       6.14525892      -2.73460615
H        6.18148500       8.17653000      13.79298500       8.99858117      -3.37549299     -37.89790626
C        7.09486500       8.14735000      13.10058500      -9.51156794      -5.55543494      50.02074264
O        6.07174500       8.68668000      10.87732500      30.35946918     -33.56307386      51.49942057
C        6.95842500       8.07955000      11.58186500      -3.97975061      52.20486774     -38.50819568
N        8.06700500       7.55731000      10.91890500     -24.50661592      19.04731046      10.17084642
H        8.84384300       7.19547000      11.46014500       0.30960397       0.17584275       0.08718689
C        8.24600500       7.78960000       9.46945700       1.04842271     -43.12399822      11.13506814
H        9.16240300       7.23567000       9.13783000     -12.10529796       2.95573237      11.76514753
C        7.08345500       7.22958000       8.66713700     -50.52437954      18.92323802      13.46168101
C        8.52643500       9.17088100       8.97075000     -38.77968560      16.04124994      13.54202590
O        9.17870700       9.27078600       7.94467500      18.53206028       8.10293702     -21.20003231
H        6.11655500       7.83647000       8.66347800      37.70569472       4.80308436     -17.16169391
H        7.42673500       6.80882000       7.77209500       9.86488404       6.00115952     -48.31513185
H        6.57448500       6.37709000       9.03860600       3.81984294     -34.76931386      35.88643975
N        7.94294500      10.22535900       9.60964750     -35.86724229      -3.00210252      34.38500928
H        6.99953500      10.09499000      10.18703200      56.55925310      -7.84010966     -27.64480706
C        8.25295500      11.58175000       9.18797600       6.57871846       5.02083326      36.61653550
H        8.30105500      11.49837000       8.10336500      -8.06430510      18.57519530     -12.99146190
C        7.22674500      12.56989000       9.83032400      -1.31105572      13.14124944    -142.83616423
C        9.66484000      12.04695000       9.57242880      33.74876775      28.58548228      13.46523609
O        9.94411200      13.27448000       9.59167680      -4.68013771     -47.31093913      -9.12148043
H        6.33186500      12.37310000       9.09669100      18.71289556      18.69310559      40.72810862
H        7.01771500      12.39767000      10.81181500     -14.10124061     -17.82448007      65.95936916
H        7.61662500      13.62291000       9.67784470     -11.80520148     -24.56847438       3.31227175
N       10.59791500      11.06094000       9.85899000     -24.19163548      20.21397052     -23.61203829
H       10.26523400      10.14446700      10.03281900     -12.23351799     -20.74438905       2.01710725
C       12.03043500      11.18310000       9.76371100     -21.73708700     -45.35955353      15.86764334
H       12.17276500      12.07689000       9.30456700      16.00795066      70.69438552     -36.88506284
C       12.54239500      11.27894000      11.19327500       6.65176359     -35.18561419      -7.86879919
C       12.71033500      10.10291100       8.88838900      44.41093862     -49.04273904       4.78584221
O       13.92825500       9.91253420       9.11518500     -28.23092190       6.78858692     -11.19375073
H       11.71771500      11.78096000      11.68822500      10.50015385      17.34572876      13.57828776
H       12.51602500      10.23431200      11.56962500       8.88590871       7.58118104       5.21969281
H       13.56300500      11.68272000      11.24646500      -7.92015830       1.78702221       7.39074704
N       11.97204500       9.27300400       8.01586500      -8.69492960      84.26177102      69.28206916
H       11.03571500       9.71738800       7.94766500       4.60729404     -30.59493425     -18.09703651
C       12.51069500       8.22519000       7.23112500     -11.13671533     -47.10367773      19.64361654
H       12.26851500       8.48538000       6.20701500      17.63167601      -7.73563759     -16.67547693
H       13.57724500       8.04902000       7.56027500     -17.58865950      12.06962862     -19.90847030
H       11.97644500       7.19864000       7.44356500      13.85356976      36.23969659      -5.45415059
42
Lattice="20.0 0.0 0.0 0.0 20.0 0.0 0.0 0.0 20.0" Properties=species:S:1:pos:R:3:dft_forces:R:3 dft_energy=8.174106930033304 energy=-620664.868545974 pbc="T T T"
H        8.85745600      10.32454700      16.19623500       8.15366806     -27.05276707     -17.70574026
H       10.22555700      10.63623400      15.25760500      14.85349639      -0.37534814     -12.72435659
H       10.20290700       9.07191700      16.14963500       1.35812503       8.66706959       2.67097015
C        9.61901600       9.78269180      15.54221500     -18.70305982       0.91652435      21.04894124
O        7.92297000       9.37002900      13.90101500      -4.75820735      -7.69596285     -19.46052972
C        9.01460700       9.04221000      14.34025500      32.49631166     -10.53386789      -0.13544277
N        9.89155900       8.04159500      13.79311500     -60.51914265      55.09147743      17.23149206
H       10.61338700       7.81883500      14.44475500      16.52888896      -8.05595066       3.76627967
C        9.60353500       7.05645500      12.70731500     -64.75087761      46.26396690      62.00860433
H       10.51910300       6.58201500      12.80960500      31.44128124     -50.20477749     -12.33211232
C        8.28636000       6.27126500      12.98594500      31.19775799     -52.32183000     -45.19021303
C        9.58366600       7.64190500      11.34362500      38.40023963     -18.48691072      -0.64822809
O       10.36523900       7.07600500      10.59878000      16.08912507     -13.59238959     -47.58681365
H        8.28885000       5.32829500      12.28814500       3.83885079      28.36317103      29.76020053
H        8.17065000       5.97141500      14.00992500       3.63040436      -7.46007118      16.32767121
H        7.38653000       6.75364500      12.68332500     -14.39607558      24.91071047      -4.87212409
N        8.82031600       8.66145500      11.01396500     -34.88307655      33.18386490      -7.78839504
H        8.38277000       9.13467500      11.81848500      -5.43870968       3.23360959     -12.83326066
C        8.75454700       9.19563200       9.63303100     -27.29984541     -14.19734638      -3.06474310
H        8.77311000       8.28283500       8.88620500      -3.28131881      33.24702690      31.99066022
C        7.35029000       9.99469300       9.41185700      37.20276884     -40.21025139     -28.32430211
C        9.99973900      10.04047200       9.33430600      10.80256114     -15.45027648       3.34544068
O       10.62244700      10.63408500      10.19470700      -1.23456216      18.29055158      22.15895696
H        7.38968000      10.30537000       8.33466500      -5.97788557       0.23089559      16.34272107
H        6.58274000       9.19825300       9.50529700       0.78494595      14.26264143       2.49089329
H        7.16606000      10.85821500      10.04904630       4.54568443      -0.65880328       6.29277120
N       10.46863700       9.96706300       8.06145500     -36.03563477     -17.02908928     -11.89673304
H        9.83034540       9.50879900       7.37314500      17.14368149      13.03056782       7.21762630
C       11.33637000      10.96311500       7.53316500      -5.58400596      37.26059821     -36.92665732
H       11.54678000      11.76358500       8.28189500       0.55326113     -17.92532595      -0.56200901
C       12.61433000      10.31505900       6.96669500     -42.20607554      10.95557195     -63.61147320
C       10.46476600      11.67511500       6.33399500      48.14579135       0.37942582      40.81034957
O        9.74389563      10.97825500       5.68105500     -38.27640421     -29.15844331     -35.22045402
H       13.41726000      11.00329500       6.75159500       4.51106977      12.75078271     -10.99368245
H       12.97373000       9.68252860       7.67666500      25.54932205     -46.89215024      54.88492705
H       12.36864000       9.62969800       6.05810500       7.69484893      29.42578563      26.41593303
N       10.65842700      12.99402500       6.11933500     -20.36020297     -11.41863349     -47.89041782
H       11.25908000      13.42781500       6.78910500      10.06527227      21.45291728      -0.38622432
C       10.04192200      13.68285500       4.86100500      31.07949219     -56.24889427       8.03098212
H       10.39027000      14.67170500       4.99640500      -5.76358510      33.54837952      -6.10585674
H       10.34734300      13.27544500       3.80376500       4.93913743       7.68855643      47.00887549
H        8.98020500      13.47728500       4.88588500     -11.53711259      11.81485945       6.45564145
42
Lattice="20.0 0.0 0.0 0.0 20.0 0.0 0.0 0.0 20.0" Properties=species:S:1:pos:R:3:dft_forces:R:3 dft_energy=13.331606594379991 energy=-620659.7110463097 pbc="T T T"
H       13.08374000      11.34478000      12.41731500     -21.99791166       9.26572203       1.76005098
H       12.83594000      10.62363600      10.87064000       6.70702144      -8.23157181       1.25857083
H       13.73725000       9.85509671      12.33434500     -24.84754848      -8.57134303     -23.23662142
C       12.80906000      10.39037300      11.94874500      78.42467863      29.68696580      -5.41173844
O       10.53408000      10.55809400      12.51550500     -29.43360681      13.90511848      -8.52568390
C       11.51856000       9.86041507      12.32585500      -1.38271436      -9.15191195      32.72810314
N       11.54919000       8.54474000      12.59459500     -32.95254744     -23.22595617      10.63079133
H       12.38890000       8.02046000      12.45225500      12.93706911      -0.84408003      -5.42848289
C       10.42364900       7.68771000      13.01158500       6.88209748     -57.01371134      12.03348527
H       10.96616000       6.77664000      13.32067500      -4.95558562      -2.25497792      -2.90047452
C        9.58076400       8.11033000      14.22703500     -60.37966485      15.72295142     -76.64524060
C        9.56518700       7.19191000      11.78269500      29.95525614       5.87696858     -24.73520782
O        9.66009100       6.06056000      11.25431800     -10.27811515      41.87509722      26.84147658
H       10.15600800       8.53923000      14.93857500      49.86100087      28.46058033      59.14640622
H        9.00939900       8.99631500      13.78965500      -1.42840904     -20.70469061      23.71750578
H        8.89465500       7.35731000      14.69930500      14.04921789       7.57185487     -19.38990205
N        8.99192300       8.29650000      11.16881900     -16.95431401       5.16974388      39.30761557
H        8.73270600       9.15026600      11.78774500      19.20017907     -41.30746881     -24.17907418
C        8.14605000       8.15208000      10.02416200      -2.35027787      -1.28755662     -34.66882348
H        8.67749400       7.61301000       9.15998500      -3.90379032      13.20535945      25.52988759
C        6.81245000       7.40705000      10.19946800       4.23398652       4.61791189      93.51067751
C        7.89057000       9.58824600       9.47441100      34.42340419       8.36764857      -3.02273386
O        7.01788000       9.84435439       8.68043500     -52.02521750      -7.70218425     -29.03911099
H        6.85576000       6.29789000      10.25186500      10.91616977      13.05699395       3.99944578
H        6.26275000       7.80872000      11.21590700      24.51467411     -20.53807567     -54.43746048
H        6.26360000       7.65437000       9.36386500     -40.54727335      15.95557242     -42.81992004
N        8.78164700      10.58505500       9.77684200      12.97261995     -50.53042318      33.13859684
H        9.64822100      10.25017000      10.26913000     -21.98700940      26.29612670      -8.21583463
C        8.56601900      11.95844000       9.37562200       4.06765599      -2.80761572      39.59723641
H        7.52367000      12.14597000       9.08934500      -3.87452013     -15.95225434      -0.81057218
C        8.83209900      12.90632000      10.53387800      72.55547198      25.94417338     -43.87625399
C        9.38343670      12.23027000       8.18927500      54.35213846      95.41774306     -15.19715450
O       10.26605900      13.17170000       8.15638500     -37.40872671     -53.46668555       5.11029102
H        8.20631000      12.67786000      11.30622800     -50.46003252     -10.59907998      50.03176340
H        9.89077000      12.74607000      10.99645900     -33.12615404      15.57517843     -24.90051923
H        8.63333700      13.93944000      10.09486000      14.02243625     -20.88730342      23.07095451
N        8.99603700      11.63071000       7.07838500     -12.45630326     -18.61667128     -58.33880964
H        8.19957000      10.96189000       7.04279500      14.55913543      14.54977371       9.93833207
C        9.56198700      12.07330000       5.78176500       0.63901568      17.04662769       3.00717444
H        9.25039700      13.17310000       5.46483500      -2.91546512     -50.61053108       8.78604640
H       10.63832000      12.22916000       5.92996500       1.89558263      -7.53751276      -0.53910479
H        9.39534570      11.23088000       5.06142500      -1.50353982      24.27352092       3.17437004
42
Lattice="20.0 0.0 0.0 0.0 20.0 0.0 0.0 0.0 20.0" Properties=species:S:1:pos:R:3:dft_forces:R:3 dft_energy=7.058722730958834 energy=-620665.9839301731 pbc="T T T"
H        6.94403500      11.47608700      11.63502500     -16.61978061      -0.01847388     -20.38473305
H        6.30349500      10.17701400      10.52557900       6.89349745     -14.91345880       4.23622622
H        5.76603500      11.72937900      10.15199000       1.42543462      10.21652925      18.66241336
C        6.63872500      11.20351500      10.58600700      -8.45374085      21.51323521      24.05701630
O        8.62186500      12.35897000       9.68263300       8.16782915      21.10286001      28.29100282
C        7.73972500      11.51495200       9.64470400      10.36145817     -19.70073489     -26.13472588
N        7.67474500      10.74255718       8.53882500      37.63210449     -52.08115082     -68.51843712
H        7.11138500       9.87623700       8.48880500       7.80816130      17.43022126       8.31156119
C        8.90443500      10.67333730       7.57290500     -26.48265010      34.18699110      28.28081158
H        8.88712500       9.83580800       6.93194500     -21.19647723     -42.75249195      -4.60881087
C        8.94233500      11.80677000       6.53276500      26.53846492      60.82938298      18.86754171
C       10.24223500      10.40769200       8.39314500     -24.54714388       9.57533430       8.37666663
O       10.28063000       9.46164000       9.18965500      -3.21199468       3.02186879     -12.32132857
H        9.48804500      12.72899000       7.12061500     -25.22640193     -39.96672814     -40.57500301
H        9.58865000      11.35960400       5.70910500     -13.83614985      26.01444554      11.53343901
H        7.97259500      12.31412000       6.09923500      34.06398520     -35.34974057      21.11897640
N       11.21221600      11.32292100       8.24968500      38.74247572      -2.76429110      11.33230420
H       11.20555800      11.93989000       7.46696500     -15.84844589      13.19813078     -13.70875934
C       12.60488500      11.32607700       8.81739500      -1.78082452     -16.71292381      -2.75144540
H       13.14013500      10.38592000       8.40667500     -10.17808694      31.37598620      14.45947458
C       13.27771500      12.65993000       8.40882500     -24.90502233     -13.50860811     -22.64908454
C       12.73631500      11.26055400      10.37102200      11.00592379      -2.50812360     -20.82058635
O       13.87963500      11.21293000      10.82025400      -3.05289282      -4.10878831       3.70162454
H       13.48973500      12.68777000       7.33275500      -6.73344756       1.26966269      -5.01230106
H       12.64548500      13.52569000       8.68749500       4.93278568      -6.62912955      -0.17157309
H       14.23396500      12.72208000       8.85718500      23.84311875       2.77694720      20.11679822
N       11.60018500      11.27415900      11.08745300      73.35121828     -13.19824928      51.20008250
H       10.79218200      11.42566300      10.59945800     -68.27989098      10.78749943     -26.20807912
C       11.66269500      10.94465100      12.54681500       9.92086476      20.80885457     -28.62624724
H       12.70371500      11.18448600      12.83635500      -5.39529025      -1.62318024      -0.40862846
C       10.65702730      11.83138000      13.26756500      18.10047309     -41.19749821     -17.04295411
C       11.43748800       9.46197000      12.79167500      -0.37502344      11.16412503      17.09888743
O       11.33808200       9.02095000      13.94640500       6.11546732       9.96191413      -8.10418130
H       10.85931200      12.82255000      12.92139500      -9.62254581      21.59997926       3.30113248
H        9.71625200      11.37280400      12.99325500     -21.29104246      14.30577645       0.08916032
H       10.84699300      11.62323600      14.29089500      -3.06268115       8.59063529      31.13352947
N       11.35210400       8.74552000      11.65558500     -25.42347208     -51.81309748       1.65826892
H       11.07942500       9.27296000      10.79810400       6.89176730     -20.63098187       7.89972842
C       10.82439500       7.35576000      11.90178500      41.97298053       0.25522066      41.56936000
H       11.42444100       6.47431000      11.61477500       7.91643731      15.09192402     -19.31654882
H       10.87579900       7.21571000      13.03049500      -9.60140491      10.93943187     -23.44246078
H        9.82894300       7.19116000      11.58953500     -30.56033143       3.46037654     -14.49028531
42
Lattice="20.0 0.0 0.0 0.0 20.0 0.0 0.0 0.0 20.0" Properties=species:S:1:pos:R:3:dft_forces:R:3 dft_energy=9.847183228703216 energy=-620663.1954696754 pbc="T T T"
H       10.84820000       9.93228300      13.68014500      -2.83658966     -23.29326576     -34.82607670
H       11.67898000       9.78616100      12.07029500      -5.19872966      -9.97670328      11.60420888
H       11.15909000       8.28341000      12.91771500       3.04305709     -11.02675659       3.33375630
C       10.88381000       9.30223300      12.69878500       8.59120410      65.52790047       3.38868235
O        9.24183900      10.59880000      11.42666500      -3.16989063     -48.44998804       0.74242952
C        9.58709400       9.46861550      11.87182500      25.26953694       7.95164449      46.25223512
N        8.96524500       8.25334000      11.89460500     -53.26760084      73.53430511     -60.96234312
H        9.47573600       7.56751000      12.31714500      34.09728448     -53.40506409      27.62715014
C        7.72681000       7.86509000      11.19616500       5.39059754      -3.66282673      28.01204723
H        7.64662000       6.81259000      11.31813500      -0.62513900     -29.31972562      14.24368098
C        6.48307000       8.52891200      11.77442500      29.87680728      48.73190620     -26.21921838
C        7.79824000       7.94364000       9.70459300      22.56625108      40.22684178     -62.73644853
O        7.66352000       6.96584000       8.93753900      -2.16412182      33.72577821      29.52343193
H        6.44780000       8.59045700      12.86165500       2.91309507       3.18395691       0.93593037
H        6.37295000       9.51235676      11.21847500       1.77155760     -11.60355711      27.63331228
H        5.69806000       7.97155000      11.39809500     -48.86818442     -31.41817319     -11.32930608
N        8.08309000       9.28972600       9.26848400     -18.97194268     -71.23890588      -1.15113975
H        8.43473000       9.90746800      10.03724600     -11.40384434       1.19937868     -15.49187097
C        8.16342000       9.55509580       7.81692500      31.64913515      79.56325353      34.84539266
H        8.11855000       8.68789100       7.26800500      -8.67199931     -56.96512519     -23.82261776
C        7.00438000      10.48918700       7.42745500      -8.92476578      -1.71065901     -18.85332137
C        9.57228400      10.14739200       7.46733500     -24.66860925       1.55373760     -15.18009010
O       10.05275100      10.08719300       6.31985500      -1.73060303      -6.28632465      26.39780210
H        6.20425000       9.99351800       7.93847500     -26.30134082      -2.35480468       6.93544744
H        7.03808000      11.51738000       7.81216500       9.15703127      -2.07702227       1.29523560
H        6.69488000      10.52938000       6.34719500      16.90714990      -3.29750630      15.04428589
N       10.14672500      10.75736000       8.52973700      69.11865379      -7.74394464     -80.95246185
H        9.63069100      10.94586000       9.31182200     -28.29775748      12.50133432      61.91546113
C       11.51859000      11.24018000       8.46899100      40.65819197       9.33618380      44.91860462
H       11.81501000      11.85509000       7.61090500     -12.82757253     -22.67965826     -22.46232413
C       11.78211000      12.29993000       9.51856840     -39.72960404      21.11234024      60.40431344
C       12.65689000      10.08471900       8.76945500      11.16649509      -0.42609459      35.85112591
O       13.45204000      10.05387400       9.76806600     -45.45127470      13.09491484     -52.85035249
H       10.99863000      13.18741000       9.41335961      36.95758655     -36.41685828       7.52839989
H       11.83619000      11.91917000      10.62639500     -17.85102470       9.39007887     -40.11746370
H       12.79786000      12.64090000       9.44118270      13.24730944      14.10112211     -12.63085788
N       12.60870000       9.09945200       7.85119500      23.43120302      15.75956879      25.61390608
H       11.81445000       9.12905700       7.27031500     -24.47544969      -1.12911126     -31.95285782
C       13.36402000       7.88885000       7.96351500     -62.03751902     -33.25555910      55.17715495
H       12.77088000       7.12967000       8.67554900      24.93085594      26.94528503     -28.13280158
H       13.39708000       7.44330000       7.01780500       9.93656638     -19.57500342     -36.11716470
H       14.30194000       8.02104000       8.43466800      26.79395696       9.87309628       6.56503139
42
Lattice="20.0 0.0 0.0 0.0 20.0 0.0 0.0 0.0 20.0" Properties=species:S:1:pos:R:3:dft_forces:R:3 dft_energy=5.134454536368139 energy=-620667.9081983677 pbc="T T T"
H        6.10808000      12.76879000      11.82551000      -8.74676273     -16.38870015       4.19239204
H        5.56840000      11.70004000      13.12549000       2.51379988      -6.02440977      35.25564935
H        4.61795000      11.82509000      11.72445000     -26.88508561      -2.61424286     -16.21864863
C        5.61798000      11.78927000      12.07517000      49.89489267      20.17379807     -28.78255243
O        7.15392000      10.80434200      10.38479900      -3.59202130      27.40803846      25.09083472
C        6.43411000      10.67744600      11.39980000      -0.59527867      11.89910309     -41.22807193
N        6.19949000       9.43261200      11.81509000     -16.37447982     -18.34589239      23.55100935
H        5.61020000       9.30178500      12.62344000       0.53029529      -6.84997137       4.97915582
C        6.85146000       8.31185000      11.15848000     -14.47499844      -1.63138064       5.08778734
H        6.56057000       7.37673000      11.65746000      -3.26606750       3.03096980       6.73835358
C        6.42178000       8.23950000       9.70448900      30.86997924      -3.84562915     -50.94660502
C        8.35330000       8.46615000      11.42860000      33.19227860      -3.72635608       3.50188808
O        8.81285600       8.84295000      12.50522000     -11.94840026       7.59457186       5.75623793
H        7.07650000       8.91619000       9.12070500      -7.26291807       3.20814334       5.68565766
H        6.62038000       7.28527000       9.15128600      -8.89657396       0.21004740      20.56462030
H        5.41629000       8.57369000       9.43420500      -5.08967153      -3.77348464      13.20227838
N        9.17499100       8.09357000      10.41564400      43.58983273      18.27976782      30.38068118
H        8.72314000       7.66421000       9.67955800     -15.49364851     -22.91073872     -53.66031912
C       10.68139300       8.15249000      10.48058800     -28.50039727       0.39079024     -70.28069225
H       10.84765000       8.44562000      11.44727000      15.09844167      20.12556743      63.03910468
C       11.32760000       6.78873000      10.20843400      14.48033107       9.45681965      33.18813101
C       11.25913000       9.32744800       9.46053800     -37.00321013     -50.71398402      34.07050285
O       11.87348000       8.99323000       8.46841000       7.26239666       7.77199425     -12.80410897
H       11.13295000       6.13608000      11.13839000       9.99837744      15.15982612     -31.59083177
H       10.91746000       6.33069000       9.31884100      -2.60907613      -6.68086787      -8.52622902
H       12.43516000       6.97182000      10.03779050     -24.21415101     -10.65459854       6.22575787
N       10.85855000      10.57400800       9.81314600      -2.08761642     -13.40586619       4.65192219
H       10.38719400      10.72912500      10.69199600      -7.55074952      -6.12877518       4.87656795
C       10.93309000      11.65486000       8.92408000      -6.48661808      81.91494158      -2.84819108
H       10.40317800      11.64557000       7.95533000      -9.75236563     -23.98638863       7.04416190
C       10.38609700      13.04264000       9.55003000     -45.03378934     -56.11794868       6.56493658
C       12.28277000      11.99247000       8.39862000      40.59100088     -30.87021625      -2.47610414
O       12.34114000      12.61822000       7.36572000     -13.33926761      41.08788312     -37.26047971
H       10.72668100      13.86392000       8.98306000       6.23021358      20.38556257     -28.73444030
H        9.20092900      13.01103000       9.54316300      52.63846948       2.87683321      11.10927009
H       10.87565000      13.18443000      10.51018000     -10.01732604      -2.10011846      16.62155815
N       13.47353000      11.48169000       8.86544000     -11.28723759       0.12802687      22.69079753
H       13.50532000      10.76788300       9.62158400      -3.82985642      17.54623550     -20.04771109
C       14.53927000      11.46632000       7.87890000      33.19216010     -24.41299871      12.03395928
H       14.89028000      10.40608000       7.92052000      12.98316670      15.68479352      -2.08383618
H       14.15942000      11.60237000       6.87451000      -9.53688014       4.86751434      -4.38448508
H       15.38205000      12.21901000       8.00534000     -19.19129136     -18.01882466       5.76988945
42
Lattice="20.0 0.0 0.0 0.0 20.0 0.0 0.0 0.0 20.0" Properties=species:S:1:pos:R:3:dft_forces:R:3 dft_energy=8.32390026259236 energy=-620664.7187526415 pbc="T T T"
H       10.05949900       6.63056500      11.39571500       0.63032706      -9.07103379      -2.66034045
H        8.27404000       6.24564500      11.62989500      -7.64705675     -22.76640231      -4.93629336
H        9.13116000       7.25434500      12.75859500       2.08305406       2.64623861       6.07730941
C        9.06993000       6.95694500      11.71561500      -1.44268863      27.21357537       1.55790890
O        8.80551000       9.38201400      11.36722500      -0.56820670     -43.10231221      -5.61320505
C        8.70715000       8.18688500      10.92137500      13.63552461      83.75564557      21.35704852
N        8.38177000       8.02558500       9.63246940     -38.69886669     -71.41820062     -30.16879818
H        8.16497000       7.02561500       9.39983200      12.26634327      24.91391004       4.25836255
C        7.80141000       8.90913700       8.59478300     -19.44453184     -28.42028937     -21.86672906
H        7.43476000       8.21001500       7.77553500      23.70375946      11.77273171      14.91819891
C        6.52081000       9.69436800       8.89440800      -8.92710029      37.85868184      20.69876547
C        8.91645000       9.74367900       8.05704500      36.52351080      12.78763708     -71.16650067
O        9.61932400       9.51325060       7.02498500     -32.81378066     -15.53678353      39.75235657
H        6.65953000      10.31092900       9.84486400      -5.30206410     -11.18845366     -22.92934366
H        6.27997000      10.46356500       8.01507500       7.20848974     -41.69414344      38.20269546
H        5.68985000       8.97570800       9.13810600       9.90934629      15.59591642     -12.55430507
N        9.09136000      10.90349500       8.68647600      41.09428227      35.87530048     -18.54663613
H        8.61299000      11.14657500       9.50664660     -23.48121120       2.06148655      33.47739634
C       10.23353100      11.79655500       8.35412500     -17.44361207      -2.55477815      36.31316833
H       10.41908840      11.76138500       7.28909500       0.47400053      -2.03843775      -7.96968062
C        9.94241800      13.25313500       8.84428500      11.17475473     -33.62493232     -58.32103422
C       11.54302000      11.34588500       9.04198800      44.22761479      27.34357294     -59.70408039
O       12.58822000      11.90812500       8.58774900     -31.15711153     -26.73115047      34.12762120
H        9.63695000      13.21247500       9.84618000     -24.03319724       8.01151211      34.48621067
H       10.89831200      13.71489500       8.80580000      24.20218223      17.58427489       1.37351855
H        9.33139000      13.75435500       8.07975500     -10.57938482       1.05603059      15.32490052
N       11.48907000      10.31501100       9.90011100     -35.18976179      23.44317180      26.67770571
H       10.52445260      10.11238700      10.24643500      15.42005827      -2.84482560      -3.79891534
C       12.54053000       9.91793500      10.79736500      21.15429023     -18.39353051      41.14156489
H       13.50494000      10.52700300      10.68178500     -28.64070458     -20.42253544     -14.66199586
C       12.23212000       9.94143300      12.30223500     -44.56724382       1.83735035      48.95611349
C       12.65100000       8.37304500      10.40524000      65.07450876      98.36810726     -43.81451403
O       12.05362000       7.47363500      10.91243500     -17.47383029     -37.12408298      18.30643095
H       13.09431000       9.79302700      12.97501500       8.30961775       8.28417520     -14.35282206
H       11.58980000      10.74429500      12.81724500      24.02940515      -4.06156495     -30.53414231
H       11.60788000       9.07968400      12.63944500       3.47516569      -0.43479507     -18.55185025
N       13.47633000       8.33139500       9.28225100     -40.59100088     -72.51186295      43.05325205
H       13.66026000       9.14475900       8.76871100       5.47200897      35.63509531     -15.09050198
C       13.32394000       7.05264500       8.57929500     106.01165632      11.77802878      34.86921172
H       12.50522000       6.59110500       9.02194300     -37.88913706     -30.44799078       3.50206583
H       13.37495000       7.24959500       7.56540500     -14.35566612       1.35657265     -54.77614148
H       14.31015000       6.47578500       8.80203800     -35.83370600       5.20905125      -6.41408252
42
Lattice="20.0 0.0 0.0 0.0 20.0 0.0 0.0 0.0 20.0" Properties=species:S:1:pos:R:3:dft_forces:R:3 dft_energy=-2.7976785488426685 energy=-620675.8403314529 pbc="T T T"
H        8.29237000       6.66274500      12.36615000      15.22405464      14.17139427      -1.37620856
H        9.72060200       7.74183500      12.85137000     -10.56127759      -4.10069457      -4.49004737
H        9.83048300       6.57555500      11.55476000      10.68377393     -10.24577574     -12.25366347
C        9.16240000       7.28894500      12.00806000      -5.98757910     -28.20947289      47.88544070
O        8.84135000       9.52832000      11.29020000     -14.88158155     -33.87971334      -6.92478218
C        8.71895000       8.30174500      11.08091000      -2.50691487      29.25277154     -53.45199120
N        8.19164000       7.77931500       9.83931900      -9.87917548      47.26531555      28.52895644
H        8.72125000       7.01231500       9.43850900      -0.23751753      -4.18581513       3.01353804
C        7.90788000       8.86519900       8.83641000      35.94652067     -38.27521918       5.35326916
H        7.62216000       8.36213500       7.90212000       5.24450729      -7.53193128      -1.13074660
C        6.78455000       9.76921920       9.09745200     -19.68438151      54.18931562      46.58593900
C        9.28827000       9.45874600       8.54688000      -1.21215328      49.29823108      -9.06619887
O       10.26511500       8.75104500       8.31099000       0.99714418     -13.91969433      -0.68871812
H        6.76809000      10.52921300       9.98468390       9.02813577     -37.93665668     -25.56294988
H        6.67454000      10.38345800       8.24467000       6.36384918      27.59930198     -31.54319365
H        5.82643000       9.30538700       9.02684400     -19.32839910     -23.31293722      14.30139184
N        9.40310000      10.83654500       8.49048000      -5.27727332       4.70239253      -4.15820398
H        8.70843000      11.51331500       8.81476000      -9.20771491     -19.41064004      -0.37765183
C       10.62626160      11.52058500       8.15154000      47.15830752     -21.24115278     -17.61236006
H       11.25111400      10.79982500       7.50129000     -13.67925215      11.35089729      30.06558224
C       10.46053400      12.71451500       7.21442000     -49.98495480      -3.69175326      35.38138082
C       11.56134100      11.82434500       9.40734000     -29.12004840     -33.11738483     -11.15105417
O       12.51678000      12.53684500       9.30112300      40.11805621      33.96740541      -9.74780327
H       10.30778800      12.37505500       6.20729000       0.84973499       1.13386323     -16.20845739
H        9.56650000      13.28293500       7.54886000      -1.79103946      -2.50832505      -7.33609355
H       11.22927700      13.42444500       7.34886000      34.05592701      13.25690817      -3.47424137
N       11.29133100      11.07601500      10.50251400      51.63297323      10.18654804      27.40080979
H       10.42335800      10.63967600      10.56324000     -43.01130206     -25.50156543       4.09927254
C       12.27682000      10.68064800      11.57822000     -17.36350418       9.68566041       3.29562210
H       13.03242000      11.48350500      11.77929000      -9.41272476      -9.95590604     -16.82561997
C       11.50794700      10.59180700      12.96717000       2.95093301     -20.27879155     -30.75917913
C       13.03128000       9.38894500      11.18694000      22.43696453     -67.97569429      11.31616412
O       13.92935000       8.86654500      11.93678000     -45.50566748      41.59874869     -38.83941101
H       11.00969000      11.52340500      13.07602000      -3.79048979      31.99540033       7.78119007
H       10.63942210       9.91112490      12.97731000      12.40878363      -9.64149441      -4.31943889
H       12.19195000      10.40412700      13.79271000       2.53523704      -2.53052063       0.77064622
N       12.62062000       8.68519500      10.02236710     -18.99825030      54.13824091      52.89787211
H       11.77830000       8.88279100       9.48087600      -1.20125103      18.53668189       6.70700959
C       13.20214000       7.49667500       9.59010300       2.42442507      -6.49541099     -82.98976197
H       13.22161000       7.62945500       8.41326000      16.23488352      -9.51161534      39.56535916
H       14.17357000       7.39848500      10.01664920      20.51875972     -11.13968975       5.96320307
H       12.58091000       6.60070500       9.63282100      -4.19057894      -7.73113448      19.37485219
42
Lattice="20.0 0.0 0.0 0.0 20.0 0.0 0.0 0.0 20.0" Properties=species:S:1:pos:R:3:dft_forces:R:3 dft_energy=0.020740615320391953 energy=-620673.0219122887 pbc="T T T"
H       12.08504000       9.89924310       6.67364500     -15.03089508     -33.00528119      16.53125902
H       11.25655000       8.22792000       7.22174500     -11.46322610      -1.98507594     -18.87808846
H       13.07269000       8.44738000       6.99162500     -22.95766583      -0.43726822      -4.23486344
C       12.08134000       8.91824300       7.27184500      54.49446033      40.46005529      -1.15689661
O       12.88132000      10.20415700       9.27128100     -25.21170758     -15.61333633     -32.28490267
C       12.34036000       9.20318700       8.73624600      17.79070677       1.06361240      52.74144841
N       12.03647000       8.09601000       9.52830110      14.51943699      18.07049188       9.37984023
H       11.64302000       7.31274000       9.01606900      -2.43705747      -5.08570169      13.13532430
C       12.21184000       8.03190000      11.04699500      -7.75584232     -25.01297838     -27.42723592
H       12.38650000       6.95512000      11.32860500     -10.75076357      15.13008192     -12.53641115
C       13.37982000       8.76750000      11.67250500      33.03075929     -15.24574065      -1.28366972
C       10.83953700       8.45442000      11.60006500      18.35738716      37.61954319      -2.93915383
O        9.88708000       7.72147000      11.78066500      -4.88843008      -9.07239657       0.50510633
H       13.36687000       9.84764080      11.64717500      -6.09065283       8.78640191      -3.99811855
H       13.27537000       8.45891000      12.75307500      19.30398752       3.78205239     -17.06452162
H       14.39231000       8.50190000      11.14926500     -36.91350351       0.83033608      27.55581145
N       10.78123300       9.83633460      11.77350500     -63.59891190     -21.92989105      17.03062982
H       11.48612000      10.48182300      11.60147500      49.60539033      15.59176883     -13.28937794
C        9.50523400      10.50545000      11.99105500     -25.47193973      15.69782883      11.97044178
H        8.87048000       9.83997740      12.65325500      11.12594343      17.26704290     -17.05895198
C        9.65396700      11.99583000      12.61744500      -5.76667803     -40.27922002      14.12458567
C        8.69682000      10.80503500      10.70454500      46.99038906     -21.30526280     -10.89077462
O        7.48246000      10.82842000      10.72312500     -17.17508473       7.33371164      -7.38938426
H       10.69362800      12.25985000      12.44172500       7.21344315      11.65813950      -1.51600631
H        8.96719000      12.72472000      12.06152500      16.66599670     -20.52669940      29.13912736
H        9.54329500      11.85081000      13.75640500      -5.21132651      19.50496827     -36.31636790
N        9.49713500      11.03777000       9.57513960     -22.63308666      -8.17963203      29.77833146
H       10.50514000      10.99277000       9.63807420       5.30721897      -3.74808949       2.62893720
C        8.91824000      11.44407000       8.33069500     -45.28074917       6.59745375      -0.72332331
H        7.97023000      11.99631000       8.62940900      17.90518048      -0.99367323      -6.10583304
C        9.85763100      12.27367000       7.48951500     -22.26916457      -5.61479299     -66.07739795
C        8.26502000      10.32146100       7.48655500       9.98791365       9.02852683     -32.38598556
O        8.29331000      10.44745400       6.24359500      -2.66709510      -3.22841917      19.68378899
H        9.37337600      13.04488000       6.75774500       7.98097394     -36.13221455      26.51831944
H       10.47765700      12.86321000       8.08356500      32.35920392      21.45113974      29.83627932
H       10.44625700      11.55759000       6.84499500      -6.01046199      19.52096615      11.24800131
N        7.54686000       9.34339900       8.08254500      11.74946961      -3.33122034      -5.78350542
H        7.57016000       9.15927200       9.06502500       2.37361107       9.80339294      16.39972091
C        6.51455000       8.67940000       7.33047500      14.53638289     -14.76781886       0.75347635
H        5.60769000       8.82194000       7.90537500     -18.70460036       4.23583516     -10.54160613
H        6.62416000       9.07294400       6.32350500     -18.49840549       9.59833569      -5.72158771
H        6.66301000       7.60279000       7.20530500       5.48896672      -7.53702690       6.64345654
42
Lattice="20.0 0.0 0.0 0.0 20.0 0.0 0.0 0.0 20.0" Properties=species:S:1:pos:R:3:dft_forces:R:3 dft_energy=14.414727614144795 energy=-620658.6279252899 pbc="T T T"
H       13.26273500      12.19552500       9.19094600      12.47846328      63.48917831       6.40191228
H       13.77526500      10.86514500       8.17308700     -16.57948966       0.08448088      11.21237937
H       12.85169500      10.77079500       9.81376500       5.86793867      -7.90618682     -25.72992032
C       12.95950500      11.28785500       8.80544100     -11.20441598     -60.13483807      21.93913427
O       11.52263500      10.57200500       7.10135500     -26.88662614     -55.69489368     -59.19048926
C       11.60286500      11.23167500       8.09458800      77.45734028      24.21521754      15.83861016
N       10.68443500      12.03742500       8.56344200     -82.35482397      64.89711007      22.01568708
H       10.98843500      12.75134500       9.21097700       6.04498185      -6.13428556       9.41029545
C        9.38416800      12.57814500       7.91310500       9.64782246      -9.11870746       0.77989655
H        9.03758800      13.39667500       8.56123900       8.85503873       2.31021207      -1.43322026
C        9.64452600      13.03204500       6.47035500      31.69345520     -10.95646073       6.66400492
C        8.16650800      11.64665500       7.91909500     -10.62451068      -4.51848804       8.33177777
O        6.99469500      12.08259500       7.90154500      35.75952325      -8.94939066      -0.82355535
H        8.73793900      13.14142500       5.89468500      -8.51737686     -11.06935834      -9.19862575
H       10.11599500      13.99220500       6.42661500       7.21826622      25.14179093       8.19209852
H       10.45976500      12.38107500       6.06124500     -26.78708379      -0.58248629      -6.07690651
N        8.50319100      10.32630000       7.94084500      40.57452899      -8.55398237       5.79082890
H        9.51283200      10.08866000       7.74644500     -26.52163752       7.06563461       1.13108552
C        7.49086500       9.34892400       7.66088500      -9.86726595      27.15859007     -50.83426436
H        6.64512500       9.90182000       8.02743200     -29.80120250       2.93103639       1.61455324
C        7.32641500       9.24500100       6.06305500     -26.85143081     -13.83579434      37.03674642
C        7.46664500       8.05248500       8.37925800      21.91069360     -20.02401053      13.78483814
O        6.89909500       7.08495500       7.91687500      -8.36512446     -22.77683056      -9.75496084
H        6.97297500       8.19399500       5.85275500       1.56546938      25.36824978      -2.98331983
H        6.56853500      10.04993300       5.83259500      17.77316836     -20.78444299      -7.89802198
H        8.29669900       9.42547000       5.60077500       1.32150767       2.11660220      -3.80431907
N        8.11070900       8.05919500       9.58732600     -10.74256317    -119.31217352     -15.21315238
H        8.38541200       8.90887900       9.82029400      47.05521009     113.43099809      36.07355567
C        8.94935780       6.93658500      10.23423500     -39.83696757      27.18513470     -23.93803949
H        8.41513100       6.00779500      10.01189500      -2.00453410      -3.63360394      -6.50196420
C       10.37272500       6.87084500       9.65651900     -16.73413581      14.17186828      13.61063903
C        8.77441700       7.19355500      11.72745500      -6.21684646     -26.67663918      18.22786360
O        9.67940200       7.61321500      12.42148500      21.26793441      22.50972525       5.08324868
H       10.88611500       6.10086500      10.23740500       8.44680844      -5.74246790     -11.26175949
H       10.30979500       6.75748500       8.57329200      -0.13316041     -19.29557382      -2.20008742
H       10.93634500       7.80209500       9.73589300      -0.94674612       7.05525377      14.19367280
N        7.57198500       6.83823500      12.33439500     -24.77857985      23.64853715      -8.77796451
H        6.83803500       6.35417500      11.75026500      18.20025245      26.08211064      20.40890762
C        7.20653500       7.61685500      13.60789500      68.33013617     -15.84927541      -1.98552625
H        7.91823500       7.21082500      14.39922500     -18.89704891      11.70913126     -14.82019710
H        7.36487500       8.74194600      13.62939500       0.38154702     -25.58854648     -18.72995996
H        6.22473500       7.43028500      13.92542500     -37.19862125     -13.43205531       3.41440931
42
Lattice="20.0 0.0 0.0 0.0 20.0 0.0 0.0 0.0 20.0" Properties=species:S:1:pos:R:3:dft_forces:R:3 dft_energy=28.278676667017862 energy=-620644.763976237 pbc="T T T"
H       14.03547500      11.90247500      10.12472000       7.36084879      -6.33930725      14.22057293
H       15.17691500      11.52444500       8.84252200      33.70397369      17.20162936     -22.27663024
H       14.42497500      10.05665400       9.53099230     -19.84056820      73.82274092     -10.41500958
C       14.25164500      11.27859500       9.26232100     -48.29072028     -82.35589050      13.03104183
O       13.18820500      11.03878400       7.06834500     -14.84555670       5.88730203      20.46768501
C       13.09452500      11.49910500       8.21510500      40.62477418       1.36338656     -24.21652107
N       12.16143500      12.40827500       8.64157600       7.70590524      43.35199761      72.77458366
H       12.33634500      12.74635500       9.64190380      -3.41359164     -19.04873249     -41.68632226
C       11.18366500      13.33697500       7.97600500      22.45639899     -85.14793496     -37.85109766
H       10.94822500      14.08727500       8.66163100     -15.91243740      25.26147875      36.28851975
C       11.85144500      14.00110500       6.76122500     -22.05894060     -35.78061675       8.01227052
C        9.85055400      12.45087500       7.73395500      55.38524587      27.27780389      46.64732345
O        9.03915100      12.92908500       6.99347500     -45.11804483      -8.59276834     -25.20661196
H       11.07234500      14.39922500       6.09598500      10.55280464       2.38976300      -1.94306670
H       12.58972500      14.67951500       7.12082500       6.94214284      29.79847693       6.56083639
H       12.46825500      13.21023500       6.34878500      -3.87215007      -6.31221751     -23.22844473
N        9.75301000      11.40828200       8.64322900     -84.30241748       7.09990562     -45.70392267
H       10.47728500      11.19515500       9.24390700      51.70620796      -8.15333626      28.96883883
C        8.48924800      10.71751400       9.04815600      -3.96895501      36.43356717     -65.36460361
H        7.56558500      11.45623500       8.93848000      44.81657371     -19.08179477       9.04925297
C        8.03222500       9.53652700       8.07662500     -19.97151379       3.43960300      27.58069704
C        8.67429200      10.20852500      10.45437900     -30.11630144     -18.01953568     -10.04158356
O        9.68175400       9.67315900      10.92172500       3.61348216       9.59097667      -0.25326300
H        6.99529500       9.24569500       8.38864500       7.62265702      11.09026224      -6.14030550
H        7.97691500       9.86492500       7.02185500       9.70258260      -4.80186378       9.30252900
H        8.54326500       8.58837500       8.28246500      15.92405067       5.12351593     -11.76719763
N        7.42167500      10.13580700      10.95740500     -22.34121427      24.46395491      16.69988850
H        6.71833500      10.69272300      10.44657000       9.34688460     -12.12011081       9.34250000
C        6.93385500       9.44244500      12.15732500      -4.04431094      62.33045794       0.71243053
H        7.68680500       9.61481900      12.93652500      15.67294324     -25.52787305      -5.81590409
C        5.76364500      10.26576500      12.86116500       1.68487280     -42.19149969       5.38916366
C        6.61570500       8.02448500      11.68867500     -27.23004726     -13.48206349      39.68504698
O        5.50303500       7.55688500      11.97293500      19.83962017      -2.25541638     -10.16217201
H        4.82308500      10.16125800      12.31536500      -6.11768332      -9.80518233       4.41923010
H        5.72340500       9.81821000      13.90401500     -12.10375743       9.00111713     -25.07827343
H        5.87701500      11.33881300      12.99689500      20.79060514       5.94084159      -5.00168321
N        7.66994500       7.35114500      11.10681500     -67.25661931     -10.28444320      25.32487775
H        8.36220000       8.00671500      10.87391500      52.32633311      -1.25274049      -8.85624746
C        7.62001500       5.90763500      11.21496500      17.40261010     -39.07380954     -15.41567367
H        8.16792500       5.46366500      12.10548500      -9.69621900      17.64945143     -13.52010289
H        6.55920500       5.59460500      11.28065500       7.53610258       8.91519075       4.10603905
H        8.00833500       5.32048500      10.32822200      -2.21644081      22.19367828      11.36139664
42
Lattice="20.0 0.0 0.0 0.0 20.0 0.0 0.0 0.0 20.0" Properties=species:S:1:pos:R:3:dft_forces:R:3 dft_energy=7.515016266959719 energy=-620665.5276366371 pbc="T T T"
H        5.74833000      10.00223000      10.21387300      18.32882798      -2.71114260       8.72850144
H        5.95564000      11.45907300      11.05230400      30.96774405     -11.19595488       1.16950057
H        6.81929000       9.92312200      11.66443500       5.54037323      12.52930098     -10.97060996
C        6.56859000      10.54422610      10.77706000     -33.69164940      -3.94326360     -39.84727732
O        8.63554000      11.70128000      10.11090750     -30.22473150     -34.18592458      -5.98671402
C        7.74473000      10.86740700       9.78260800      32.78948759      43.05858468      21.14800958
N        7.80595000      10.28776800       8.52204500      -5.76123875      16.48160635      35.51848856
H        6.96482000       9.83158200       8.25625500     -14.51090479     -17.30081620     -13.62343733
C        8.76627000      10.67141560       7.53073500      58.54050141      10.20041287      -4.52200757
H        8.72080000      10.06709000       6.65358500      -8.78803725     -40.02443900      -3.74944042
C        8.67447000      12.02406000       6.80570500      52.49211853     -26.67616517      11.38961216
C       10.35438500      10.39301300       8.05382500     -64.93811204      35.55818699      -7.95096903
O       10.71832320       9.28411000       8.33000500      10.02396220     -42.79301990       8.37887078
H        9.17882000      12.74325000       7.42890500     -18.91956444      28.59235544       3.58479263
H        9.31225000      11.90022000       5.90814500       0.55450778       1.96500157       4.11106357
H        7.72037000      12.16113000       6.40509500     -42.99506718      22.57549430      -2.78008752
N       11.11987100      11.49059000       8.24882500      -1.30617341      34.79230340     -23.86575278
H       10.88695500      12.38504000       7.81964500     -10.97580038      -5.73989639       5.14796306
C       12.51803000      11.37245900       8.53344500      17.75219336     -56.88513580      11.82470704
H       12.73214000      10.35948700       8.08701500      11.27549396      11.91593049      12.85127309
C       13.46103000      12.41306000       7.96617500     -20.53878669     -18.48074857      20.23056091
C       12.80525000      11.20854300      10.04538201       1.20210425      10.62916784     -19.18749927
O       13.95891000      11.13335100      10.43970300      14.60677356      -5.23688756       7.95581579
H       13.74108000      12.04615000       7.00644500      18.66786449       5.04469972     -21.63268603
H       12.86870000      13.29519000       7.89607500      -3.28303711      32.28573219      -6.00999982
H       14.25167000      12.50606000       8.72266500       6.30386307       3.36840652     -13.55067661
N       11.71031000      11.23122300      10.81195400      41.39800495     -13.69714607      31.47090694
H       10.88780500      11.31859900      10.31388300     -62.34681132       6.97243216     -16.44510748
C       11.81704000      10.97686300      12.22902500       9.50471848      20.69272183      25.16679502
H       12.92155000      11.30637600      12.43311500     -40.62584071     -12.18730190       4.71628106
C       10.73688990      11.82315000      13.04990500      67.51483691      39.82796136     -23.52363520
C       11.70565000       9.48652000      12.62816500      -4.31664222       2.46712163      14.02919091
O       11.73012000       9.16044000      13.81627500       4.42414796       3.61830523       8.76210884
H       10.79947400      12.88258000      12.65449500      -8.75266416     -21.48171346      -1.17032298
H        9.76133000      11.45103600      12.98072500     -36.54341927     -15.80969547      -8.05064173
H       10.98796000      11.99517000      14.09185500       7.00573145     -15.17700903       9.11742763
N       11.53892500       8.57139000      11.66627500      -4.28778679     -16.47117810     -24.40387399
H       11.44283800       8.87824000      10.68802700       2.39975279      -5.32415302      11.26552788
C       11.44989500       7.08194000      11.95873500     -25.83147722      65.70577317     -64.42700946
H       11.52339600       6.70481000      10.88868100      13.88426199     -14.31987828      38.11452938
H       12.07007000       6.92487000      12.79371500      37.33335893     -21.16033387      12.99288393
H       10.46034200       6.89322000      12.32206500     -23.87298145      -7.47929233       4.02300414
42
Lattice="20.0 0.0 0.0 0.0 20.0 0.0 0.0 0.0 20.0" Properties=species:S:1:pos:R:3:dft_forces:R:3 dft_energy=6.872057193540968 energy=-620666.1705957105 pbc="T T T"
H        7.92899000      11.93609500       7.94288500      13.08531612      -7.65776940      -7.70434100
H        8.56706000      13.45644500       7.20215500      -0.60302164      -9.50449333       2.04695811
H        8.13305000      13.30586500       8.83111500     -17.32273922      33.30912236      47.20357559
C        8.61930000      12.78289500       8.08663500     -26.45492045       4.64072368     -46.60999507
O       10.56323400      13.00399500       9.39368800      24.42721905       6.00949026      14.50770522
C       10.02313590      12.51372500       8.40895500     -25.31302747     -26.92051795     -28.10566444
N       10.56171100      11.64869500       7.49790500       3.10592282      11.21469018      15.51533452
H        9.96386300      11.12510400       6.86445500     -12.46625749      14.43364097       6.57226006
C       11.87246000      11.05338300       7.51830500      15.65587884      25.22426887      33.22510388
H       11.72961000      10.42166220       6.65906500      29.37494793     -17.15636129     -10.04611037
C       13.10789000      12.05562500       7.51204500     -10.46632130    -117.42513494      -1.49447435
C       12.06718000      10.17070100       8.78430500      -1.10515118     -68.57034134      -7.75791612
O       12.27316000       8.94173500       8.67110500      -2.54916112      23.97228680      -7.40827361
H       12.96692000      12.88595500       6.95611500     -12.55169801      66.77573495     -42.33595461
H       13.32094000      12.21311500       8.53721500      14.87541940      14.61921635      21.08401807
H       13.85225000      11.37113200       7.02856500       3.68434684      20.61605051      11.46297724
N       11.98882000      10.74720800      10.00660000     -38.85078727      36.25948656      30.33150252
H       11.53199000      11.71629500       9.99082000      23.43985372     -18.57270674       0.69314065
C       11.83511000      10.01907200      11.29872500      11.47564519     -24.91675411       2.93097714
H       12.15984000       8.96042500      11.17108500      10.56547259      14.36407982     -10.07693295
C       12.76151000      10.60460000      12.41157500     -12.91692364     -30.85409987       4.47718981
C       10.37821900       9.58554700      11.84345500      30.13964649      -2.99789567      25.10789913
O       10.25465500       8.69085500      12.72939500       1.53218194      41.67494599     -47.10746982
H       12.34132000      10.09515300      13.34093500      21.31083243      22.40141369     -13.31426352
H       13.75401000      10.22367100      12.17220500       6.78683308     -10.38681777       6.55704430
H       12.98522000      11.68047500      12.48376500     -25.12437101       1.21515141       0.33826150
N        9.41984900      10.30799900      11.24259500      33.00658472      19.91510646      -1.08854775
H        9.81823100      11.04855500      10.62235300     -24.22055016     -14.08915333      10.60168704
C        8.03875000      10.05407600      11.40370500     -33.07721239     -15.34789006      16.71695291
H        7.94763000       9.29888500      12.22199500       4.90909697       2.63130726     -11.24109260
C        7.17506000      11.22456300      11.76396500      24.52818343      70.12924567     -12.93967617
C        7.59539000       9.45353500      10.06816100      -8.47399298     -10.96867836       2.77429274
O        6.95229000      10.06160900       9.23195100      -6.95238149      17.20601396     -15.47859865
H        7.31524000      11.70266500      12.77742500       3.96531697     -16.09647225     -19.46455881
H        7.29764000      12.05606500      10.97260500       6.96497833     -18.89183478      24.03734484
H        6.14775000      11.05062500      11.60563500     -34.87525536     -19.62418208       3.36985226
N        7.99505000       8.17719500       9.88072930      11.37021325     -14.32153732     -47.85688153
H        8.64937000       7.77792500      10.47165400      30.26229689      -9.22786039      56.33433479
C        8.34047000       7.59816500       8.56948500     -59.28043289     -28.74451303      -4.15104641
H        9.08636200       8.07861500       7.97203500      14.79495600      20.25449847      -5.15243062
H        8.65063000       6.54355500       8.69453500       2.00177299       8.29446124       7.98894917
H        7.38665000       7.49778500       8.00721500      11.34118006       7.11404301      -4.54284037
42
Lattice="20.0 0.0 0.0 0.0 20.0 0.0 0.0 0.0 20.0" Properties=species:S:1:pos:R:3:dft_forces:R:3 dft_energy=2.8253327027196065 energy=-620670.2173202013 pbc="T T T"
H        6.91047500       7.36518000       9.91651700      18.67604119       8.48854513       1.82866410
H        6.37608500       7.59786000      11.60950500      24.37993643      -3.19849721     -11.63376348
H        7.21505500       6.15450000      11.09451500     -11.21105214     -26.57377875      -1.36355246
C        7.23329500       7.21902000      10.96136500     -42.94268894     -10.89403345      21.29139797
O        9.59387050       7.06674000      10.80712500      23.61037925     -13.67083845       1.73341155
C        8.63158200       7.49928000      11.42628500     -18.83862703      55.84207416     -23.78588190
N        8.67589500       8.48127000      12.37833500     -57.04724763     -18.56642610       9.28137625
H        7.72522500       8.79818000      12.69354500      32.00096996      -8.75367144      -6.80588833
C        9.80195900       8.99854300      13.04989500      39.93082179      31.16884330      13.04775073
H        9.50596800       9.79886490      13.71200500     -21.67226597      -8.14142673      24.85773972
C       10.70991500       7.98695000      13.78213500      33.05007524      21.80913670     -62.01310744
C       10.48720300      10.07426500      12.13105500      -6.71878877     -42.29199007       7.47214662
O       10.44237000      11.23045000      12.52110500      11.08574728      17.12969816      -6.29006934
H       11.42650500       8.43097000      14.45464500      12.17959922      21.30407777       0.17026956
H       10.19777000       7.37479000      14.43982500     -36.71062672     -40.82575493      21.43834144
H       11.30045500       7.43581000      12.99546500     -13.21341764      -0.44580990      20.05541377
N       10.99394500       9.61212800      10.96856500       8.76641049      48.54644932     -23.75388614
H       10.85954500       8.68117000      10.63041600      -5.05486726     -24.84399339       6.73418228
C       11.58798500      10.61252300      10.03673000     -14.35234805       7.37170364      35.35756175
H       11.41252500      11.56748000      10.57034600       1.84992350      -2.98904351      -2.79548104
C       13.10476500      10.36835000      10.03384100      -9.35021453      27.60807119       0.49540806
C       10.87547500      10.79440800       8.72288500      62.18624003      23.50017165      -8.81589726
O       11.37672500      11.66986000       7.97785500     -22.02516730      -8.57214885       1.71286316
H       13.22066500      10.08714700      11.06290500      16.77122719      -7.23070901      16.47307414
H       13.32721500       9.51986600       9.41695200      13.68861387      -9.99777308     -14.09851505
H       13.74323500      11.27728000       9.87518500     -13.97823471     -17.49302774      -9.33927672
N        9.93347500       9.94987100       8.34890500     -39.82156221     -21.03566893     -16.47911779
H        9.48677100       9.24786200       8.95543500      13.89694179      11.55817054       1.92031416
C        9.45186400       9.86635960       6.96399500     -15.32703357      13.63457659       1.07411767
H       10.13039200      10.41155000       6.31513500      13.40491817       3.10076795       0.75978781
C        9.37151100       8.42684000       6.63903500     -23.06751793     -29.96912096     -34.10771273
C        8.06286500      10.66494200       6.76669500      63.94316253       9.00493292      26.26827854
O        6.96640500      10.27836900       6.48154500     -36.75388024     -35.68688103     -13.82773615
H        8.44916500       8.08570000       7.19880500      24.95301597     -13.78211258      -7.86396427
H        9.12038700       8.28233000       5.54535500       0.93653355       4.20799886      19.89756804
H       10.33869500       7.86274000       6.77576500     -23.44862293       9.37629700       9.82686834
N        8.32458500      11.94272000       7.09408500     -41.34290115      38.06345468       1.23956298
H        9.26285900      12.30560000       7.08754500      14.90149002      -2.35902338       5.71725051
C        7.27117500      12.96021000       6.92649500      42.17550181      10.25467530     -64.90137617
H        7.47058500      13.84550000       7.43842500      14.56600859      30.24262542      44.17796212
H        7.37481500      13.42169000       5.89110500     -10.23595185     -19.94959077       7.89028374
H        6.25676500      12.71267000       7.06968500     -23.84074869     -24.94081018       7.15348074
42
Lattice="20.0 0.0 0.0 0.0 20.0 0.0 0.0 0.0 20.0" Properties=species:S:1:pos:R:3:dft_forces:R:3 dft_energy=-1.3896212230902165 energy=-620674.4322741271 pbc="T T T"
H       10.64889900      13.71353000       6.02026000       1.76946010     -20.93802262      -0.41562013
H        9.90281300      13.79712000       7.51203000       7.84253896     -27.76413937      -6.55555116
H        9.31282100      12.56331000       6.39276000      10.28150433     -13.58125033      -0.96537713
C       10.24958100      12.98786000       6.77717000     -10.98333716      80.01154962      24.33229830
O       12.05824500      12.41174000       8.35213000       0.64636641      21.02950678       8.31779444
C       11.34541500      12.14897000       7.39769000     -21.89825080     -27.17340292     -28.60266518
N       11.47283500      10.97600000       6.69274000      36.56972689      -9.32249673      22.47050082
H       10.73183300      10.63893000       6.13793000     -25.75978303      -0.80080874     -19.78131680
C       12.44880500       9.92465100       7.03970000     -45.20810695     -26.14420611       1.14661057
H       12.49105500       9.21799240       6.19448000      -9.99126727       0.49393744       2.26225399
C       13.79700500      10.41793000       7.19705000      91.36471032      -6.93845741      19.25457185
C       11.95794500       9.06814300       8.27885000      23.89691902       1.02891952     -47.08507279
O       11.73627500       7.84715000       8.15175000      -9.48709711      18.43216242      12.50797048
H       14.02257500      11.08508000       8.01592000     -13.71551400      15.44127027       9.51653321
H       14.54251500       9.57986300       7.50940000     -25.61272105      17.28150024     -26.08779877
H       14.14860500      10.95176000       6.29912000       2.33785878      -7.91604625      -0.31617495
N       11.88590500       9.80574500       9.37566100      -9.99029555     -19.32389599      79.24862860
H       12.35295500      10.71166000       9.49325630     -10.13636210      -1.16333369     -16.87953875
C       11.62801500       9.08242400      10.74260000     -11.67385297      14.80254018     -61.23892865
H       12.01054500       8.09368000      10.51085200       4.90944063     -12.89073452       7.29752089
C       12.30217500       9.75151700      11.87299000      -4.89827766      -5.01237216      32.89554759
C       10.09632610       8.96549000      10.99118000     -15.97251832       7.74806853      16.26107264
O        9.58355000       9.56310400      11.96221000      -1.91739899     -12.14357437     -17.35935658
H       11.94598500      10.76394000      12.05871000     -11.92221114       3.47854302       0.25609166
H       11.97676500       9.11285500      12.74548000      17.17366269      18.63029910      -6.85898943
H       13.38279500       9.87345300      11.80649000       6.83422235     -13.88331397      -3.48260767
N        9.43163800       8.15832000      10.10492700      45.62772537      30.09094184      30.97165465
H       10.11015660       7.81782000       9.42311300      -9.76717848     -12.13030205     -12.13255361
C        8.03918500       7.90785000       9.98164400      -3.41612760     -41.11134668     -71.54594663
H        7.41326500       8.78070200       9.79849500       6.15389777      18.38630184       2.67210777
C        7.92217500       7.11305000       8.52004000      60.90854285      34.16210551      48.77539672
C        7.25730500       7.16453000      11.08134000      33.66202370      17.09201427     -69.23063894
O        6.59782500       6.20288000      10.78909000     -32.86094478     -57.55100303      -5.83493564
H        6.94875500       6.74740000       8.55639700     -36.59413847     -28.61759654     -11.93429842
H        8.05467500       7.91641000       7.79415000      -2.86603760      -0.08052644      -7.93088280
H        8.78977500       6.38135000       8.37622000     -32.03663930      12.37169226       8.14784958
N        7.17537500       7.82640000      12.17649000      19.34890008      68.85332603      84.14599379
H        7.84531500       8.62219600      12.38801000     -14.81119089     -22.44040111     -13.57331064
C        6.33961500       7.33476000      13.24765000       9.16652334      -9.02651228      -3.28986287
H        6.17453500       8.14015000      13.97974000      -5.56096902      -8.17079172      -3.25803301
H        5.45748500       6.89498000      12.76691000      -8.27080808       7.43856292       8.30561235
H        6.87768500       6.48299000      13.67401000      -3.14289569      -2.64870347      15.57351939
42
Lattice="20.0 0.0 0.0 0.0 20.0 0.0 0.0 0.0 20.0" Properties=species:S:1:pos:R:3:dft_forces:R:3 dft_energy=-0.7650982522172853 energy=-620673.8077511563 pbc="T T T"
H       12.78211000      12.42784500      12.65646500      -4.96185441      -7.57961680     -22.55771888
H       11.66491000      12.60703500      11.21883100      12.23529554      10.88345115      -9.23661775
H       13.36582000      11.86871500      11.02676400      19.68141894      13.88935761     -20.08124738
C       12.50919000      12.04015500      11.62858300     -45.71541744     -36.27868401      45.82017391
O       10.80887000      10.37474500      12.42941500       3.94447233      18.66478342       8.64786029
C       11.84163000      10.62623400      11.80784500      30.84544916     -12.43331371      -0.69538391
N       12.56003000       9.57235300      11.24775200      -5.54359651      35.45757812      10.18772122
H       13.42499000       9.84429900      10.76871870      -9.89395278     -13.67415653       2.44378843
C       12.17969000       8.18454500      11.45493600     -13.56916305     -14.77682507     -18.81243791
H       12.93861000       7.62371500      10.81316200     -30.39395350       5.77391855      11.74961181
C       12.33089000       7.68751500      12.91803500       8.63380586     -27.55012332     -43.18917476
C       10.66553600       7.91274500      10.89864500      20.33733193     -14.42747882     -63.38015573
O       10.38321700       7.71816500       9.67335500      26.14574664      17.31681408      59.81831709
H       13.34251000       7.30443500      12.96342500       9.86653123      -0.10561183      15.24763670
H       12.08766000       8.35369500      13.67863500      -0.76202988      42.78875380      28.36530408
H       11.66422000       6.85813500      13.13096500      -2.11776353     -15.50976489      -7.25933929
N        9.70044080       7.86268500      11.82601500     -15.60456713     -14.37462657       9.69226101
H        9.88986000       7.81740500      12.82537500       5.08445741       7.27955587      -7.04396045
C        8.29505000       7.63403500      11.44259700      14.67479416     -23.06633290     -20.63098187
H        8.29480000       6.75656500      10.70105140      -5.73163675      26.96033489      17.61307107
C        7.59192000       7.31985500      12.74518500     -28.46449092       6.23930274      15.03456866
C        7.79202000       8.90727600      10.70061620      17.49776785       6.21354023     -49.68940882
O        7.05870000       8.87838200       9.66620500      16.14517690      -1.76711374      54.11122227
H        8.21635000       6.61912500      13.35488500      -9.84958533      11.59023740      -4.71219272
H        7.42156000       8.31022500      13.25950500       5.72033158     -21.53029961       1.95799805
H        6.57501000       6.85189500      12.64223500      17.96241733       7.92184104      -4.50472987
N        8.49674000      10.03793800      11.07868200     -25.61840919     -18.50859673      19.53660851
H        9.17150200      10.01061600      11.87703500      -9.21546500       2.19418598     -19.65475581
C        8.11371000      11.30329500      10.51753000     -19.68781809      17.95447764     -13.71954310
H        7.08476000      11.16480500      10.13582200       3.84286803      -1.74933832      -0.29594297
C        8.03646000      12.45648500      11.49450000      79.29413367      18.21885739     -34.62936205
C        8.95555800      11.58838500       9.27119500      -5.50950325     -15.64094749     -44.48855796
O       10.09943500      12.01377500       9.16252500       3.01151164      11.84888161      22.83252687
H        7.29400000      12.25035500      12.16961500     -34.73684409     -15.13233347      56.66377257
H        9.11094200      12.60473500      11.89607500     -40.16296877       2.07808879      -0.12269424
H        7.68685000      13.38087500      11.00095200       9.75587331      -3.85749128      -4.61696387
N        8.26667000      11.13367500       8.13012500      55.30999659      46.08384264      33.43959395
H        7.67841000      10.43839400       8.45862500     -46.19345773     -50.56087840       2.34475564
C        9.05622800      10.90534500       6.96042500      24.30148758      42.89493231     -24.14613041
H        8.44857000      10.28941600       6.32136500       5.19055297     -20.19572108     -11.48504246
H        9.11561600      11.89653500       6.39473500       2.74486849     -20.46164137      11.25936573
H       10.16232400      10.62451500       7.14040500     -38.49385684      -3.07200732      -1.81324688
42
Lattice="20.0 0.0 0.0 0.0 20.0 0.0 0.0 0.0 20.0" Properties=species:S:1:pos:R:3:dft_forces:R:3 dft_energy=-6.816748886019923 energy=-620679.8594017901 pbc="T T T"
H       13.41155500      13.34424500       8.19050000       3.12724148      -7.80363450       1.64730741
H       13.73680500      12.09571500       6.95164000       2.82792710      -0.74535061      15.17736454
H       13.72106500      11.63107500       8.72529800       3.97208348       2.29781668      -6.19072844
C       13.27290500      12.27541500       7.95132000      29.66587230      -2.56795566      -6.28769928
O       11.53079500      10.82236500       7.38886000     -44.81941777     -92.63861541     -30.74839537
C       11.84007500      11.89682500       7.76216000      52.11658315      90.96381534      30.87424534
N       11.09723400      12.99963500       7.97853000     -58.29828168      12.43023264      -5.09974427
H       11.49408500      13.75405500       8.51689000       6.83442380      -0.92373525      -1.82356848
C        9.62419800      13.17906500       7.71885000      18.85723197     -31.69132215      23.26553610
H        9.49990100      14.24925500       7.98783000     -14.40768885     -10.20547293     -14.45319393
C        9.34209100      12.68745500       6.29164000      -3.78887815     -18.44235367       1.63090663
C        8.78891500      12.35744500       8.79210600      62.32453280     -17.04935326     -77.98609977
O        8.08309500      12.95381500       9.52797600     -53.80358901      30.23041964      57.76620412
H        9.74331000      11.64500500       6.17495000       6.11227959      22.41705606       0.62811224
H        8.30205500      12.50341500       5.98137000      -4.90473606      16.13688170      11.44542698
H        9.80648100      13.38126500       5.60476000       5.88516898       1.55204301     -13.17656327
N        8.91473500      10.99324200       8.68257000      -9.79496739       3.87719829      12.53119703
H        9.56593200      10.53517400       8.04964000       5.55251977      12.47194563      -6.17321373
C        7.91518500      10.16385600       9.31392700       0.00366132       8.59192697      -0.96485216
H        7.24739500      10.83122300       9.88647000       5.28063879      -0.70864437      -4.12444253
C        7.09012500       9.42553500       8.27989000     -58.83035925      -1.05242810      15.71927784
C        8.41117500       9.18868500      10.37778100     -39.56749221      -1.54635488       0.44544254
O        7.54184500       8.85849500      11.19607000      17.81902894      -7.64607317       9.97526940
H        6.40667500      10.04588000       7.65491000      25.05208431       6.63596716      -3.18780826
H        7.62816500       8.69547500       7.71551000      13.04621019     -10.66791826     -16.00510659
H        6.26319500       8.89262500       8.80681700      15.80744392      -6.14954872       3.93793098
N        9.64910800       8.67968500      10.29335500      18.55208726      -1.91725679     -28.59140742
H       10.31024500       9.00958500       9.55035900     -16.08545149      -2.24645757      21.46891516
C       10.26021100       7.87187500      11.32826000      29.84528554      23.83446804      -3.57231429
H        9.54425100       7.77574500      12.12831000     -10.92457162      -4.00385408       8.88126340
C       10.81479900       6.55238500      10.79898000      11.90218417      24.69574639     -26.92798362
C       11.46769500       8.77347500      11.76374000     -12.03111521     -30.68961798      64.29606387
O       12.16240500       9.36801500      10.97611000      13.46606561      14.17755642     -15.83943968
H       11.79099500       6.72466500      10.30894900      -5.88823820       1.45453891      -1.97674520
H       10.97442400       5.75074500      11.45882000       2.28450882     -20.21882913      37.65912312
H       10.14014368       6.17311500      10.06159700     -14.42131668      -7.16870835     -18.32681344
N       11.69566500       8.75749500      13.15171000       7.35094195       5.13522401      -2.52447699
H       11.16685500       8.13260500      13.77712000      -0.22935269       9.61717764     -18.28438943
C       12.92271500       9.29635500      13.78310000      -5.54875138      24.64336815     -61.68592121
H       13.32140500       8.54603500      14.39524000      13.10866117     -18.18899468      36.39635729
H       13.67410500       9.44852700      12.98922000      -2.62443410      -8.25306821      -5.72957480
H       12.88643500      10.33182200      14.15647000     -14.82600374      -8.63802456      15.93459742
42
Lattice="20.0 0.0 0.0 0.0 20.0 0.0 0.0 0.0 20.0" Properties=species:S:1:pos:R:3:dft_forces:R:3 dft_energy=8.390731133986264 energy=-620664.6519217701 pbc="T T T"
H       13.00081500      13.54800000      10.36201810      -9.11784239     -40.83120606     -31.48370524
H       11.74483500      13.15427000       9.12074500     -20.50679093       3.84811770      -1.36309030
H       13.36769500      13.41683000       8.61350500      -3.45554163     -11.36176400       5.60648594
C       12.75383500      12.91394000       9.40380500      29.94352436      55.45871761       9.61151320
O       13.13120500      10.85375000      10.47436900      23.56084508     -34.00295625      53.51527170
C       12.91585500      11.42110000       9.44553200     -16.72631463      10.04178502     -41.16550246
N       12.64661500      10.79189000       8.22584500      14.93550032      15.73847529      50.97824526
H       12.42645500      11.49754000       7.58793500     -13.92798952      17.17555874     -42.02464775
C       12.38865500       9.41215200       7.91814500     -17.24879347     -25.96017126      17.69246795
H       11.73306500       9.41302700       7.03625500       5.98696288      -2.52396742      -1.47756400
C       13.65630500       8.57601500       7.69630500     -23.12262173     -15.21694447     -46.29122254
C       11.50936400       8.53287300       8.94029500     -12.85625020     -31.99231926     -42.02476625
O       10.66275100       7.74313000       8.47497500       0.56574895      24.00523058       1.37420586
H       14.13629500       8.80865600       6.71843500      -5.59537038      -2.69554763       9.42426693
H       14.37091500       8.69273500       8.44025500      33.12413949      16.63068287      38.97343767
H       13.42587500       7.49578000       7.74311500      -3.97030594       5.05722547      -9.42726505
N       11.89502500       8.47982500      10.20253280      90.95243908      -0.94480386      61.47901532
H       12.86688500       8.92048200      10.40312100     -50.48503661      -2.47900746     -11.07838826
C       11.63014500       7.47093000      11.26079900     -21.92242538     -18.94622757      15.01300115
H       11.33269800       6.45200000      10.94736000       7.80376485       7.72285114     -20.93387502
C       12.83525500       7.28669000      12.23620500       7.11028647     -13.84645960      15.20971580
C       10.24940800       7.80258000      11.99655500      35.23455585      32.39736183     -29.78556013
O        9.63999800       6.93476000      12.55447500     -23.86101267     -28.86123829      26.32764844
H       13.27947500       8.25159000      12.41729500       1.41721053      18.79857308      13.23557766
H       12.60578500       6.77520000      13.23342500      -9.74030205      20.54376381     -26.89527685
H       13.73666500       6.69317000      11.93574500     -19.74742499       0.91278440     -18.43868008
N        9.85442400       9.08335500      11.78327500     -33.31350697      -7.79958170      16.79054314
H       10.49561830       9.65324700      11.29873500      21.15938585      18.29422517     -17.01415793
C        8.51726500       9.68199700      12.05076500      38.04022813     -31.65766735      -7.24426573
H        8.22648500       9.26731670      13.01621500     -12.82010685      -7.46508385       0.14513986
C        8.68679500      11.17007000      12.22243500     -65.43274272      -2.68798715      25.59672317
C        7.42523500       9.29086460      11.01216700      11.19331227      -1.62114200      10.27696567
O        6.33051500       9.78210700      11.22984400     -24.38183247       4.69367073      -3.14775431
H        8.84334500      11.45614000      13.28156500      12.27191290      -0.55328720     -14.01888117
H        9.32484500      11.55423000      11.49994500      43.48235069      22.53567736     -24.81164213
H        7.70621500      11.60918000      11.94513500       2.71876233      -0.92219471       6.63397631
N        7.65531500       8.41998800       9.99614900      -8.85406701     -15.73100961     -15.47658410
H        8.47984500       7.98566000       9.62330400      37.78355106      12.12508793      24.33324633
C        6.64361500       7.82205000       9.14347500     -55.62758409      29.42827419      60.85438707
H        6.85948500       7.99351000       8.16731500      20.57718160      14.94332151     -75.09202440
H        6.56588500       6.76976000       9.26742500       1.09039284     -29.35112886      10.99081469
H        5.62908500       8.25694900       9.30816300      13.76173009      -2.89968055       5.13207184
42
Lattice="20.0 0.0 0.0 0.0 20.0 0.0 0.0 0.0 20.0" Properties=species:S:1:pos:R:3:dft_forces:R:3 dft_energy=8.773280260153115 energy=-620664.2693726439 pbc="T T T"
H       15.47273500      12.24219000       8.95253200      22.93349126       8.00388053       8.25664700
H       14.30403500      11.84171000       7.75303500      -1.42217580      -0.92020505       1.43844623
H       15.79794500      11.07585100       7.53182500      31.23176829       0.87413708     -10.71691917
C       15.17166500      11.44330000       8.31040500     -54.84439909     -24.37863290      -2.61852081
O       15.09840500      10.08767870      10.32395900      -7.69481338       1.95223882     -22.43305394
C       14.68410500      10.25064000       9.16528700      -4.79550018      22.95162219      24.83119509
N       13.61156500       9.53977700       8.64154100      22.45628049      27.06722441     -37.81945741
H       13.53106500       9.61031700       7.60716500      -2.97437286      -2.46441977      22.36609986
C       13.07809500       8.37617000       9.30059200      39.50776679     -19.36596448     -40.68130002
H       12.28150500       7.95251000       8.61080800      25.39266135      -1.86472450       6.91102401
C       14.27776500       7.39562000       9.65277780      -9.90785315     -18.80864582       2.76053456
C       12.21041500       8.72988000      10.42111600     -46.65881822      10.15577286      42.00331725
O       11.71258500       7.81597000      11.08181500       5.92479631       0.58492863       4.14014415
H       15.11089500       7.97375000      10.16961700     -23.23365885     -15.33485476     -18.38879040
H       13.82987500       6.71573000      10.40721400       9.73509977      -1.26414046      -6.39806094
H       14.67768500       6.74673000       8.77146800     -18.04216971      29.74752073      27.66009392
N       11.72578500      10.03129740      10.55107800       2.52903934      10.77457078      11.34118006
H       12.21417500      10.84576100      10.13328300      -4.43080782     -21.37565346       8.43382053
C       10.65402370      10.31388300      11.56447500       3.29995931       7.71316946     -29.72607172
H       10.45059400       9.33189000      12.02362500       5.96877270       7.54938674       7.49864384
C       10.99976300      11.45886000      12.54871500     -10.41892018     -23.04085480      30.14000200
C        9.32095500      10.68437100      10.85787500     -15.67957940     -15.36104388      60.98154057
O        8.26183500      10.78140100      11.51487500      11.05043345      -1.51604186      -3.17410933
H       11.96521500      11.17113000      13.07672500     -23.20415165      12.84534795      -9.05656459
H       11.08672300      12.45262000      12.05393500       0.57665832     -11.82431598       4.08031209
H       10.11310200      11.48867000      13.30876500      35.71970631       3.15077613     -25.69247344
N        9.35298500      10.88208400       9.57187910     -12.62422172      -3.94268294     -32.42580250
H       10.20132400      10.83742000       9.05503300      23.08529335     -11.58251101       0.39585742
C        8.32159500      11.49283000       8.78779700     -51.68096686      -8.61909966       7.96868519
H        7.71045500      12.17798000       9.48533100      18.12559568     -17.43673891     -20.31161682
C        9.04709500      12.17492000       7.69046500      19.09506708      56.15788412      -4.44904540
C        7.10524500      10.55661000       8.11321500      32.41324120      38.80255664      41.03799344
O        6.78235500      10.77467000       6.95139500      -2.02752365     -13.33772708       3.64921076
H        8.67957500      11.86534000       6.69123500       8.86808589      11.75607021       7.63489836
H        9.07981500      13.28427000       7.90423500     -22.25660327     -11.71407282     -20.32915524
H       10.13444400      12.10637000       7.87673500       0.78285793     -19.57879551     -18.42173418
N        6.42718500       9.84570200       9.05270500      -5.35725085       4.17228211      -1.98386722
H        6.82335500       9.74982700      10.01714500     -11.96890124       7.15862376     -21.87395773
C        5.19875500       9.19497800       8.56810500      -1.49941592      -3.20187454      50.01173643
H        5.37971500       9.19588200       7.52883500     -10.62865828     -15.55669200     -34.30893048
H        5.10890500       8.23958000       9.08137600       5.82960301     -15.78066229     -10.75539703
H        4.20205500       9.63654300       8.80736100      16.82455345      16.85216460      -1.97654374
42
Lattice="20.0 0.0 0.0 0.0 20.0 0.0 0.0 0.0 20.0" Properties=species:S:1:pos:R:3:dft_forces:R:3 dft_energy=38.69277004629839 energy=-620634.3498828578 pbc="T T T"
H       13.09374500      10.90898000      13.26071000      10.37926914     -29.81957043      -2.62071311
H       12.79488500      10.53709000      11.62547000      20.70990473     -27.84401026      25.16620250
H       13.94539500       9.38129940      12.53804000      17.36966632      -6.91971026       0.41633707
C       13.05662500       9.96838000      12.62372000     -18.53774842      77.81735178     -34.29352512
O       10.78921600       9.99964600      13.06019000     -52.24195912      28.32904222       0.04997666
C       11.76885500       9.31008200      12.87639000      29.75794897      22.82778676       3.19674337
N       11.70015500       7.99708000      12.84334000     -23.04760946      41.43379279       8.31723748
H       12.47088500       7.43575000      12.84885000      63.33156959     -31.71431169      -5.44304688
C       10.48679400       7.31729000      12.96906000      19.26144501    -102.70637624       2.27927099
H       11.00575500       6.34030000      13.22497000     -35.24071799      -2.67298469      -8.72654615
C        9.46086400       7.57877000      14.01677000      50.60685749      -4.06809445      39.67402622
C        9.90980700       7.08570000      11.58092000     -27.22909923      -0.02867566     -15.00790553
O       10.34079900       6.26170000      10.78481300       4.73227894       4.81734025       2.81227288
H        9.69343800       7.22067000      15.05169000      -0.82552368       0.23042632     -19.05927924
H        9.38379200       8.60423600      14.04602000     -14.07422198      61.55379059      12.80778256
H        8.58433500       7.20544000      13.64283000     -58.04800377     -30.34157526      -9.49335406
N        8.78072500       7.85419000      11.31749400       8.76249990      23.87712905       6.76628469
H        8.55231500       8.61700400      11.98357000       3.41122158     -17.63985271      -8.28288352
C        8.17771500       7.95324000      10.01878600     -41.15045260      -9.65221892     -22.01876815
H        8.75525500       7.41612000       9.26642000      10.43425444     -14.08133214       6.93942913
C        6.69676500       7.31215000       9.99014600      22.03761010     -30.21311823     -29.14801507
C        8.16713500       9.33704030       9.32023000      28.21847911      24.01068171      -4.63517775
O        7.68840500       9.40415104       8.15888000      11.10138965      14.25482024      43.00336237
H        6.67018500       6.29434000      10.59831600       2.97945663      42.67191004     -34.43667650
H        6.05460500       8.00870000      10.46851460     -20.74024145      15.99230829      18.08874131
H        6.29207500       7.25700000       8.87386000      22.60559401      -6.67945769      50.47911147
N        8.92962400      10.36573100       9.98056000     -42.02061866     -96.90530870      28.75209721
H        9.38899600       9.97876800      10.83751100      -2.21209176      23.70849957     -18.48359264
C        9.13792200      11.63377000       9.42084800       2.84695865      20.05707281     -38.00657333
H        8.19928500      11.82513000       8.85524000       2.57776769       9.54108699      10.20060247
C        9.57246500      12.80385000      10.34405370      29.70770379     -26.39507653       1.96693317
C       10.16958700      11.38184000       8.25620000     103.55035318      48.57939309      43.45284349
O       11.44648500      11.44905000       8.41106000     -72.41634970      -6.77188987       1.86827958
H        9.02880800      12.86402000      11.35245000      24.76104143      -6.29393253     -28.84938801
H       10.72301000      12.77039000      10.29129300     -28.01252124     -11.08626869      28.84050030
H        9.50793600      13.73830000       9.82493700     -22.65880177      18.51843246     -12.86893000
N        9.59205800      11.33190000       7.07039000     -29.22006477     -28.11467065     -30.49764345
H        8.71974500      10.80859000       7.12302000     -16.53268105       4.16706799      -3.20305957
C       10.30188700      11.20910000       5.86458000      71.75569659      17.20056283    -103.77562700
H        9.86033930      11.83262000       4.94831000      13.80356158      -4.29654415      49.75008225
H       11.47819500      11.52096000       6.00152000     -67.27072114     -14.44904633      -3.65600097
H       10.32821800      10.25290500       5.19661000      -3.22311024       9.10575511      47.67841631
42
Lattice="20.0 0.0 0.0 0.0 20.0 0.0 0.0 0.0 20.0" Properties=species:S:1:pos:R:3:dft_forces:R:3 dft_energy=12.043383934651501 energy=-620660.9992689694 pbc="T T T"
H       11.97731000      14.60456500       5.20977500      -5.36856787      25.44503959     -22.36396681
H       12.95725000      13.28474500       5.78797500      -3.12072382       6.88722865       0.39258911
H       12.90122000      14.71732500       6.81691500       3.81197435      16.20442830      -4.24949854
C       12.33032000      14.14623500       6.09341500      -7.25770395     -58.23808226      41.12781857
O       10.54983000      12.50451500       6.34928500      -9.98570949     -13.78175707     -10.60352384
C       11.08257000      13.50199500       6.79157500       9.85285600      18.07511349       8.50859580
N       10.61911800      14.16155500       7.93799500      57.21244053      55.65424722     -34.98889955
H       11.14181000      15.07836500       8.01744500     -20.42217993     -28.06881007       4.83685766
C        9.23863400      14.19865500       8.33105500     -10.95136510     -46.42856729      -5.60326267
H        9.05268200      15.00209500       8.98787300       3.92882996      27.13074191      22.75739610
C        8.20728000      14.29306500       7.18014500      -4.82640571      24.83676472      43.99451979
C        9.10231700      12.92157500       9.25806200     -24.07206616      -3.43502880     -21.84551706
O        9.06946300      12.93521500      10.48455800       4.57088998      22.15125428       2.85568046
H        7.24974000      14.14891500       7.64443500     -19.78830846     -14.01212651       8.62692084
H        8.02800000      15.27764500       6.74089500      20.16467335       7.33454116      -3.96765148
H        8.36293000      13.56120500       6.46120500       5.87784550     -31.19657296     -36.32620364
N        8.89110000      11.73797400       8.61874500      -8.77142316     -23.46616134      -9.01997093
H        8.98916700      11.50760100       7.60073500       5.11845586      20.82023084      26.58361449
C        8.43290000      10.65045400       9.48161000     -25.95104654     -20.00706463      -5.06477410
H        7.53776000      11.03535100      10.04734500      23.56961429      -6.90496852       5.33738979
C        7.94506000       9.45918500       8.61217500      21.96271633      23.37266263     -36.92262823
C        9.61128030      10.01935100      10.30729900     -13.67865963      51.68416644      56.76841054
O       10.64304700       9.72940500       9.78588600      40.09885876     -26.83175935     -49.19548915
H        7.04275000       9.58806500       7.97921500      -4.47855260       5.57771346      21.20666847
H        8.71460200       9.42874500       7.79731500      -0.74174813     -18.56571508      14.52157004
H        7.93275000       8.55900500       9.21421900      -3.47772535     -10.17757738      -2.20941359
N        9.57257400      10.02788000      11.72146500      63.06991541     -30.65051206     -67.68915453
H        8.69675400      10.27342900      12.01888500     -61.87173360       5.44935123      42.26129784
C       10.41075400       9.01842500      12.39621500     -13.04952827       2.32536858      23.84501479
H       11.28347000       8.70894500      11.81874500      -2.61989544       9.82484194     -16.47959180
C       10.94262000       9.68512500      13.71973500     -23.33711179      -1.56837270       1.96901881
C        9.53232800       7.74014500      12.63057500     -81.58348925      38.69590412       2.33046420
O        8.26812000       7.78578500      12.32998500      84.38169585     -11.17708924      12.07425023
H       10.01489500       9.90477900      14.26800500       2.78658148      -6.70940335      14.06462325
H       11.68032000       9.14644500      14.38476500     -15.49044893       7.60709760     -19.92126860
H       11.25048000      10.70721100      13.46671500      15.09168701      -5.22703998      -3.62853202
N       10.04401700       6.75160500      13.39636500      26.21329324       5.94539210     -19.50994538
H       11.09783000       6.75018500      13.56120500     -45.67228242      -6.83554958      -3.27663795
C        9.16446600       5.65565500      13.74562500      14.83892054     -36.09299013      34.94683105
H        9.26299700       4.72235500      13.10619500      -1.08485165      23.17654050       7.30216620
H        9.48963100       5.36046500      14.79022500     -11.94413416      -0.85916663     -18.40490678
H        8.09821000       5.97003500      13.78239500      16.99484197       2.03581884      -5.04091948
42
Lattice="20.0 0.0 0.0 0.0 20.0 0.0 0.0 0.0 20.0" Properties=species:S:1:pos:R:3:dft_forces:R:3 dft_energy=9.54529205081053 energy=-620663.4973608532 pbc="T T T"
H        5.82693000       7.25877000       9.93024050       1.86221224      30.28481242      -1.96110283
H        4.88119000       8.82594000      10.27127600      17.22935901     -15.26529361      15.78492839
H        5.46764000       7.49095000      11.51704000     -20.43758530      17.67682558       3.14300235
C        5.69322000       8.13298000      10.64006000      -7.21192632     -42.73080593     -16.94554481
O        8.04493000       8.66959000      10.26677900     -27.96926772       4.25928687       4.37370132
C        7.02698000       8.72836000      10.97072000      52.26957027      12.51697669       2.97118514
N        7.05410000       9.29624500      12.26820000     -63.18581114     -54.89808086       1.40834652
H        6.40032000       8.63809000      12.81659000      20.13433663      42.39520600     -12.59625506
C        8.20256000       9.65435300      13.03446000      27.73131410      53.77929593     -19.63579536
H        7.98307000      10.62388800      13.60670000       2.60655202     -23.29622833     -13.88698755
C        8.58883000       8.55397000      13.98990000      43.60357905     -14.23621530     -29.83473879
C        9.34771800      10.25880900      11.92787000     -15.62317207      -1.25031119      -4.16401062
O        9.11444000      11.31024000      11.31374000       6.06869426     -18.85699496      23.78445986
H        9.36672600       8.89809000      14.67205000      -4.65949452       2.72211595      13.19102061
H        7.75975000       8.03978000      14.47303000      -5.03107190       4.51211259       6.61343978
H        9.13723000       7.78637000      13.38199000     -12.10115037      -0.25640332       7.86326510
N       10.50243900       9.54526900      11.77196000     -23.36709300     -26.08886530      30.35010746
H       10.54767400       8.60508000      12.22861000      -4.01429418      26.46226762     -12.25461149
C       11.79215000      10.03620210      11.35648000      -0.35104795      25.62516385      -6.21320843
H       11.81387000      11.12421000      11.43127000      -5.35842403      10.44247853      21.26639388
C       12.83478000       9.37787600      12.22357000      36.68230455      -9.89650059      14.58496904
C       12.02252000       9.95314700       9.84378600     -16.82538297     -60.72924811     -33.04794219
O       12.62774000       9.00103000       9.31798600      12.01559135      16.96367573       7.91445831
H       13.23873000      10.07377820      13.03006000     -18.25831882     -19.54786628     -13.54344794
H       12.49742000       8.37015000      12.67259000      10.50856754      32.81638772     -12.98364071
H       13.71791000       9.17272300      11.58370000      -5.49766482      -5.13664604       5.50996541
N       11.31130000      10.83541100       9.08850600     -36.55088494       2.78069189      -4.83460611
H       10.45385300      11.21317000       9.50542300      10.60801509       8.54838904      18.75686009
C       10.97105800      10.59424600       7.66187000      60.46806794      -9.19273616     -21.88118640
H       11.14772600       9.47644700       7.43766000      -5.12540013      32.29224984       4.39385865
C        9.61088000      11.09202000       7.30118000     -24.85062955      -6.45694498      50.24376491
C       12.05264000      11.52989000       6.89558000     -49.23637261      -8.17304327      33.34668775
O       11.81155000      12.74123000       6.75875000      14.19864992     -24.85939876      -7.22593335
H        9.47934500      12.13772000       7.67343000      -0.21832363     -12.90673240     -10.29070015
H        9.41577200      11.01658600       6.26143000       0.41523262       3.99393540     -28.99230239
H        8.85581000      10.42530000       7.78874000       5.14994206      11.27928605      -1.24909061
N       13.20996000      10.92110600       6.63622000      17.16133840      18.00021972     -10.43485880
H       13.43350000       9.95451800       6.84012000     -12.84309639      -0.54014287       6.80646899
C       14.30359000      11.77431000       6.20946000      -8.17435865     -12.52207231     -30.65762223
H       13.95898000      12.38992000       5.32795000      14.37379705     -14.77552154      12.25058240
H       14.59698000      12.45978000       6.97354000       5.73059392      15.30641408      19.17339743
H       15.11881000      11.07312900       6.01474000       8.07312171       8.95821912     -11.09756201
42
Lattice="20.0 0.0 0.0 0.0 20.0 0.0 0.0 0.0 20.0" Properties=species:S:1:pos:R:3:dft_forces:R:3 dft_energy=6.203748479252681 energy=-620666.8389044248 pbc="T T T"
H       10.78648200       7.31463000      11.68453000      -0.95431726     -17.11002669      -4.35496603
H       11.85876000       7.40857000      13.01226000       4.54128798       0.18577091      51.75218705
H       12.45280000       6.52951000      11.62929000       8.08134581     -15.58074807     -13.44947522
C       11.84016000       7.32743000      11.97643000     -11.91747103      78.36033161     -34.41830857
O       12.26854000       8.65528000      10.02504300      -2.03645876      10.61958097       2.06174725
C       12.27817000       8.71408000      11.26651600      17.54516897     -58.58091086       4.76976138
N       12.72765000       9.76997400      11.99337000      -6.89741989      -7.52849470      14.08156915
H       12.76812000       9.53968000      12.99999000       3.03390867      15.92488019     -14.48483418
C       13.43285000      10.99731500      11.43012300       3.39560291     -38.49978198      -6.89356855
H       13.72132000      11.60936000      12.24886000       6.69697240      11.95302187      24.31724845
C       14.66533000      10.47549580      10.67236500      30.62100486      -1.89179054       4.75868136
C       12.52097000      11.87888000      10.56814780      -4.89321759     -45.30350171     -10.26332600
O       12.69645000      13.05653000      10.43441930      13.55636474      57.53334611       9.22650946
H       14.34973000       9.74789200       9.92205100       3.26583050      -0.36260672      -2.68385140
H       15.32627000      11.21735600      10.21223300     -16.94495229      15.73065411     -10.07514356
H       15.47665000      10.02464200      11.30333800     -24.96261469      -5.83782711       5.54498299
N       11.57071000      11.16604100       9.91722300      38.68796443     -18.14443763      33.66415675
H       11.89305000      10.13795700       9.85108700     -26.81149537      17.73655099     -18.01503257
C       10.65920900      11.82717000       9.10489000     -50.41369793      28.09701374     -38.17840239
H       10.50754400      12.94778000       9.50142000       4.22029945     -51.29500325     -14.90753366
C       11.07984700      11.88569000       7.60811000      39.78684089     -17.06096653       7.83284544
C        9.26463200      11.01509900       9.12241000      11.38824938      14.21263325       4.98137183
O        8.48051000      11.03601200       8.17133000       3.20624729      -1.82295226      12.05943738
H       12.03244000      12.45192000       7.44274000     -20.92190624       6.71926278       6.32763473
H       11.40104000      10.88618500       7.23123000     -10.75299142       0.88752079      10.44465898
H       10.25700960      12.17235000       6.98774000     -10.90610889      14.36490934     -10.92845851
N        9.08521000      10.27396500      10.26585100       4.67604936      -0.05855342      47.00994202
H        9.65371400      10.58861690      11.14618000     -24.33727542     -17.79035126     -50.13746790
C        7.78123000       9.55992000      10.60790800      26.68422336       5.33183200     -38.65786472
H        7.36695000       9.20870000       9.63886200      -6.63885863      28.11573718       1.65771196
C        7.98996000       8.23965000      11.28992100     -14.97436924     -13.45006773      22.19675936
C        6.97583000      10.53573370      11.39286400     -47.66514400      43.68854556      -0.02735613
O        6.71001000      10.39132200      12.58948000       5.65750140      -4.76250901      -4.98419219
H        8.31133000       7.55710000      10.46425200       7.72447463       0.69272826      25.25176152
H        8.67005000       8.41660000      12.15337000      -0.60664309     -17.24997850      -9.90862342
H        6.99948000       7.84125000      11.73918000      31.11397651      15.09275354     -16.94886288
N        6.48735000      11.65854000      10.69734200      -2.40307087      -8.45225957      -3.20183899
H        6.62173000      11.74691000       9.68193200       4.26408623      -9.33157404      10.21308081
C        5.43055000      12.51647000      11.25242500      16.23215795     -26.66324837      62.75564598
H        5.32432000      13.47049000      10.74698200      -3.14590567      -0.85894858      -4.51215999
H        4.52335000      11.94962000      11.49711500     -15.88672229      -2.09170476     -30.43151889
H        5.60012000      12.64807000      12.36994000      19.69125467      14.48116059     -23.44494934
42
Lattice="20.0 0.0 0.0 0.0 20.0 0.0 0.0 0.0 20.0" Properties=species:S:1:pos:R:3:dft_forces:R:3 dft_energy=17.982113440870307 energy=-620655.0605394632 pbc="T T T"
H        5.06426500      10.40145000       7.86729000      -4.40736797     -16.47023008      -7.15151359
H        6.47670500       9.56359600       6.91677000     -18.02842339       8.82947768       1.54808502
H        6.27250500      11.37067000       7.12352000      11.97648542     -25.55299564      19.20551169
C        6.13197500      10.34552000       7.62585000       8.21098787      21.16175591     -22.50818471
O        7.80243500       9.17415800       8.93702800     -16.94139721       8.99148286      -2.09381411
C        6.89669500      10.02068500       8.88880900      31.55682147     -11.51121973      18.23521077
N        6.45398500      10.71317600       9.98643900     -14.01698512      28.03219271     -30.40924036
H        5.94304500      11.52788000       9.62766201      -0.59455936      -3.21205393      22.51363584
C        6.76378500      10.60795600      11.39644000     -50.88865715     -42.08520268      22.04211320
H        6.26978500      11.45726000      11.91118000      12.84582196       0.87615519      -9.57646008
C        6.00005500       9.37843300      11.99477000       2.01735611       8.35795504     -14.38576584
C        8.23332500      10.66622000      11.66328000     -27.21416788     -91.52125251       3.54293745
O        8.71605100      11.73362000      11.56583000      68.94492869      99.02579779      -7.35284985
H        5.81699500       9.39714400      13.05089000       0.20205794      10.16328594      19.39926377
H        5.06397500       9.26213100      11.48796000     -25.80647313      11.80880396      -5.82546727
H        6.37636500       8.40598000      11.79076000      29.77051027     -22.92211499      -7.69752709
N        8.91512800       9.49941800      11.93041000      66.07490939      94.34612225      -5.25581246
H        8.50278500       8.65012000      11.87953000     -45.47627879     -71.99530925      -8.87298006
C       10.43233400       9.39324600      11.82015000     -26.48750872      -0.31403597     -23.05152005
H       10.90806500      10.31514300      12.27848000     -12.09297367     -24.57321449      -2.34154421
C       10.75467500       8.08632000      12.45693000      59.49148637     -32.25610649      48.69588135
C       10.91757500       9.34477200      10.31106600       1.08599757     -22.38553432     -37.28844637
O       11.30014500       8.30935000       9.69401940     -14.97531726      36.03397573      36.29017879
H       10.39959800       8.10649000      13.51514000       5.47805261       1.43653834      -8.22472234
H       10.38699100       7.08341000      12.06693000       4.22678155      33.95413310      -8.78733808
H       11.92451500       7.99879000      12.52704000     -43.94285257      -1.56241201      -3.60473665
N       10.86155500      10.58100900       9.74177900       0.96961835      -2.71069228     -40.41075813
H       10.24358000      11.18905000      10.23906800      -6.88667168      20.59389049      17.52917109
C       10.79555500      10.96624200       8.27074000       6.00435909     -13.17502273     -10.54610923
H        9.95802100      10.43787400       7.72817000      13.74632473       0.17862519      16.05203370
C       10.63734500      12.46668000       8.14092000     -25.40083805     -14.37356005     -29.60259180
C       12.11138500      10.80427200       7.40014000      66.82775768     -53.45696832     -16.96533477
O       12.46875500      11.55722000       6.48486000     -18.90617362      -2.91057096      19.13038092
H       11.60322500      12.80839000       8.37747000      25.10742511      32.58139667      12.84309639
H       10.48831500      12.64376000       7.04471000       0.49418156       4.38595451      19.26571112
H        9.84348300      12.91659000       8.71142700     -10.46504147       4.15430524      10.95849897
N       12.91995500       9.70046000       7.77343000     -53.29864858     -13.68411076      28.95864759
H       12.32518500       8.97355000       8.24944000       8.55741895      23.35796829       5.02626069
C       14.11493500       8.96743000       7.36185000     -25.41280683      12.59578105     -51.29405522
H       14.93602500       9.49763700       6.93237000      10.28518977      29.88320643      -7.34193574
H       14.52873500       8.47293000       8.19746000       4.55899230     -21.01741950      27.24237155
H       13.83917500       8.26387000       6.54067000       2.80946437      -3.05880611      12.10980107
42
Lattice="20.0 0.0 0.0 0.0 20.0 0.0 0.0 0.0 20.0" Properties=species:S:1:pos:R:3:dft_forces:R:3 dft_energy=18.30474523396697 energy=-620654.7379076701 pbc="T T T"
H       12.45287500       9.77768420       6.99071000      -9.72089129      -0.35442528       0.44165519
H       11.61262500       8.09796500       7.53541000       7.23536617      25.93184909     -23.46308027
H       13.33905500       8.18526500       7.16032000     -12.22711884      14.76604132       0.98698256
C       12.48150500       8.82646500       7.51280000       6.81509599     -68.30548759      59.68203887
O       13.21852500      10.07328100       9.41558600      15.88375972      47.01468213      29.51478123
C       12.76083500       9.01689500       9.09188300       9.56604368     -13.36119063     -47.14219114
N       12.56975500       7.88553500       9.93290100     -42.59405370      28.30652669     -58.52853262
H       11.68727500       7.59284500       9.48981400       4.64035632     -30.50451661       9.90538830
C       12.35757500       8.01359500      11.36084000       1.82874705     -10.80431498      12.70468512
H       12.29794500       6.97254500      11.66105000       3.44594290     -10.40291045      10.90253010
C       13.55995500       8.67362500      12.01228000      18.80556475     -18.26732503     -61.57689864
C       10.90449500       8.47002500      11.73287000     -16.70640616     -38.56057392     -27.45626910
O        9.99128000       7.62269500      11.58317000      20.04676307      33.62896142       6.86005596
H       13.68596500       9.65401200      11.55264000       1.79851699       8.17873141       5.35494005
H       13.28838500       8.75015500      13.02803000      17.06558814      -2.77065470      39.45384802
H       14.49227500       8.07153500      11.60806000     -33.33068987      21.47969892      36.38995814
N       10.76895500       9.75334650      12.08531000     -51.42784488      19.05750170     -11.60476584
H       11.58113500      10.29473300      12.08203000      43.06711688      19.01792176      -1.70585965
C        9.54132500      10.69791100      12.13256000      35.31241219     -65.26103217      -1.05058420
H        8.85660500      10.11915600      12.73705000     -13.54107788       5.57492865      14.56506057
C       10.11000250      11.92258500      12.79593000      13.19990832      19.19484644     -42.85499687
C        8.78186500      10.86854500      10.82324000     -75.60229746      15.31636832     -46.55370624
O        7.49511500      11.01695500      10.77892000      78.53251618      -7.44157289      20.58962439
H       10.91299900      12.42552500      12.06938000     -30.55144372     -22.29250962      36.10389238
H        9.24808300      12.58209500      12.79479000       1.07955813      18.14657068      18.29778025
H       10.53266700      11.61538500      13.77082000      -5.05929927      14.32449989      -6.13154815
N        9.47025600      10.88219500       9.63653600      -4.35399430      -1.18292338      26.78068464
H       10.46513800      10.83421000       9.74410740      18.74951292      -2.32359104      -4.39866986
C        8.98207500      11.46561500       8.36972000       0.61998887     -13.12264450      24.25894507
H        8.18502500      12.16020500       8.69833000       5.24149732       5.56594613      -6.14245040
C       10.17222783      12.13435500       7.68861000     -30.64470542      24.13558366      69.87730872
C        8.23788500      10.47956900       7.45915000     -19.63437332     -13.45018623     -12.52539039
O        8.32852500      10.60059800       6.22918000       0.01165212      -6.61912791      14.11415742
H        9.81696800      12.52225500       6.82110000     -23.44530485      27.35660825     -69.34961575
H       10.43130800      13.02745500       8.31302000      10.84858763     -18.15688042      -6.50204715
H       10.94440800      11.46795500       7.45161000      33.16668200     -22.84852475       0.05991644
N        7.36813500       9.60388900       8.08727000       5.89948411     -10.55691669     -20.18209326
H        7.40485500       9.51874200       9.08463700      -0.56154329       6.53078408      15.78315085
C        6.57018500       8.58698500       7.33914000      49.77935244      -7.17244119      16.47236313
H        5.50772500       8.76463500       7.46760000      -7.10983616       7.01741582     -16.16532237
H        7.09562500       8.61474500       6.37393000     -27.62205452       3.59052817     -13.00248266
H        6.75512500       7.52805500       7.67967000       1.49294567      19.62394508       7.23655120
42
Lattice="20.0 0.0 0.0 0.0 20.0 0.0 0.0 0.0 20.0" Properties=species:S:1:pos:R:3:dft_forces:R:3 dft_energy=-4.509931565262377 energy=-620677.5525844693 pbc="T T T"
H        8.33989500      12.44626500       7.83143500       2.81617163       7.03393511       2.59977366
H        6.55213500      12.57931500       8.00280500      10.22968306     -13.87561128       1.58516455
H        7.38914500      11.29277500       6.99995500     -10.02470876      -1.60116242     -11.96475364
C        7.41340500      11.87117500       7.91321500      -3.57977997      -1.04119522      -1.82629404
O        8.19616500       9.74547200       8.76687500     -18.03861463      11.77633419       4.71374510
C        7.65993500      10.84700800       9.01359500      40.85881721     -23.21837199     -22.26442445
N        7.54532500      11.33728500      10.24562350      -9.01489901     -22.37392104      53.47379572
H        7.20540500      12.29410500      10.20808300      -0.58381471      -0.81046435      25.74342964
C        7.82992500      10.52624200      11.54837500      22.06474724      16.91271953      -7.77294227
H        7.54862500      11.20241500      12.38921500      16.94044919       3.87115465     -13.22266086
C        6.96980500       9.31136300      11.85748500     -32.29853049      -0.83622448     -16.08948058
C        9.38302500      10.17602700      11.70258500      17.87271071      26.14444311       0.67025894
O       10.27545600      11.03781500      11.75819500     -20.19465456       5.95477752      -2.53574660
H        6.96343500       8.52483500      11.07063800      -1.84019442      10.38665186       5.25313430
H        7.23398500       8.83060500      12.81779500       3.78611704       8.71701852      -5.70709482
H        5.94550500       9.73872400      11.98875500       5.84916783     -16.24756332      -4.90106248
N        9.73533100       8.87829500      11.90991500     -35.64741960     -12.50891850     -25.63819915
H        9.12366500       8.16609500      11.45412500       9.71483579      14.60144093      16.04516054
C       11.08112600       8.41433500      12.18065500      -6.31288113      18.59628880      -7.83595021
H       11.53418100       8.93671500      12.99025500      -1.74321173      16.17906870      28.87048151
C       10.94114700       6.97071500      12.45811500       5.86062705     -22.99013560      23.12688783
C       12.14078500       8.64740500      11.11420800       6.48375032      -5.67202984     -27.58496314
O       13.33181500       8.54365500      11.35756500      10.59877188      -4.98653855      13.42376011
H       10.14082900       6.73386500      13.15324500      -9.29898577       8.57855985      11.73655280
H       10.59107680       6.53289500      11.53451500      13.57627321     -22.79484298     -12.47952980
H       11.84506500       6.59344500      12.96700500      -0.61660562      -8.34347400     -20.96598928
N       11.68267500       8.86937500       9.85346000      -6.19569371     -23.45585160      32.08522545
H       10.77828900       9.22822500       9.78188500     -49.69414893       7.61229988      -0.19088075
C       12.44714500       9.22576400       8.74828500      41.95319056      14.72160277     -11.21023447
H       13.34184500       8.55788500       8.62927500     -16.12929752       4.82998450       1.99234017
C       11.59263500       9.21768400       7.47161500       7.19156754      16.36428857     -18.02866039
C       13.16682500      10.61970900       8.95561500      25.31350148      10.66617627     -40.66814621
O       13.99545500      10.91364400       8.06015500     -22.94984465       5.71825778      31.73967129
H       10.55073725       9.58144300       7.58584500       5.93626738      -2.51152463      12.07614628
H       12.09011500      10.02277430       6.84675500      -8.98491780     -30.95850083      -3.71590413
H       11.49732600       8.18711500       7.01547500      10.45276458      24.52605038       4.28380510
N       12.85339500      11.39042500      10.03907900      14.84129060      31.35264115     -28.09025908
H       12.11612500      11.11431500      10.61580800     -35.16582422     -24.24069564      24.73295627
C       13.06550500      12.84603500      10.22787985      -2.44306556       4.66108246     -16.04930813
H       14.05449500      13.05839500      10.58973600      17.50606305      -1.04288744      12.84996956
H       13.01927500      13.46710500       9.30635100      -6.66822362     -15.15354547      -0.83509160
H       12.32344500      13.27675500      10.94124800       7.57839622     -14.54136001      -7.42466254
42
Lattice="20.0 0.0 0.0 0.0 20.0 0.0 0.0 0.0 20.0" Properties=species:S:1:pos:R:3:dft_forces:R:3 dft_energy=23.42998171900399 energy=-620649.612671185 pbc="T T T"
H        7.25972000      13.87429500       5.65488000     -46.32961745       4.33779497     -41.71701448
H        9.01204700      13.73951500       5.75233000     -19.99604387       5.03858498      17.89333020
H        8.06074000      14.82917500       6.83360000       4.20843732      46.66936497      18.38487981
C        8.04825000      13.93068500       6.31407000      35.66081042     -73.73493035      16.32020553
O        8.88441300      12.67955500       8.15403000     -11.78765121     -16.60721931       2.64721034
C        7.88518000      12.84500500       7.45109000      44.71762387      40.84720394     -15.45880868
N        6.67312000      12.30806500       7.71068000     -22.53757341     -21.20121734     -12.24086517
H        5.85615000      12.36629500       7.05718000      29.75889700       8.62786887      11.32835806
C        6.45714000      11.22698400       8.67679000      -9.56201458      -8.82637291      35.06450433
H        5.44058000      11.49238500       9.03997000       4.71993095     -14.09792254       2.25901886
C        6.52086000       9.82280800       8.08414000     -17.72872981      18.61714529       5.56583948
C        7.29414000      11.29620800      10.04038300     -15.16030013      -4.75740153     -82.75050482
O        7.05272000      12.18249500      10.77364280     -26.23237219      85.31846048      73.06527103
H        7.48071000       9.73003500       7.62539000      16.21141996     -10.92671652     -17.69578603
H        6.36189000       9.04105500       8.81597000       4.09546860      -4.90060032      14.66851352
H        5.68171000       9.67930300       7.42574000      -4.72797729      -1.80656333     -23.79370308
N        8.22501000      10.40269770      10.26600100      39.67426323     -80.17863857      -9.34783262
H        8.22379000       9.54352400       9.66294000      14.15326334      24.89518660      20.62031662
C        8.99451700      10.40831630      11.53095200     -48.51978619      43.16464468      -4.03243696
H        9.18513100      11.50225500      11.69585000     -11.00582899     -12.44824507       6.11690120
C        8.16217000       9.78710500      12.70962000      90.75987203     -22.14556615      28.82225087
C       10.35985600       9.82129100      11.35151900     -19.73924830     -60.04181337     -73.18484035
O       10.54617900       9.12475500      10.34100500      10.47558822       6.62838298     -10.73714759
H        8.09080000      10.44146300      13.59450000      -4.15751666      -1.09744495      -8.20710098
H        7.29814000       9.18181500      12.59611000     -30.16559860       1.64238955     -22.81202589
H        8.90730800       8.94616500      12.99645000     -23.14490025      18.68670644       9.98294838
N       11.28445000       9.98200800      12.27220000      14.31419015       9.72584470      97.72179299
H       10.84974000       9.87575300      13.25544000      26.14325808      19.41407662     -35.04696592
C       12.73402000       9.57946800      12.23315000     -12.40996866      16.40007642       3.39741601
H       12.96197000       9.33926000      11.19475300       2.36609799       2.25115028      -5.76151130
C       13.55196000      10.76737300      12.83407000     -54.65740168       0.20209704     -57.88198135
C       12.82822000       8.36413500      13.12375000      -8.36760117     -19.15064490      -1.83325016
O       12.88510000       8.50869500      14.34512000       0.43153387      -6.58234465       0.26930946
H       14.55942000      10.57017700      12.96343000      46.88978018     -16.30420766      21.40717520
H       13.52269000      11.59048500      12.12041000      -0.93668286       3.15564660     -13.62604439
H       12.98172000      11.17772400      13.62602000      -1.42561238       1.50805477      36.63727348
N       12.64530000       7.11131500      12.55355000      16.32340511      75.39610259     -17.06748419
H       12.61613000       6.94729500      11.56750100      -0.70065017      11.54294293     -14.99913633
C       12.39161000       6.04849500      13.36378000       0.75932802     -87.47746299      47.60020446
H       12.08891000       5.17082500      12.71582000      11.48590753      12.97570103      17.74638672
H       13.27057000       5.77967500      14.05311000     -19.17991509       1.03313229     -20.71902945
H       11.56389000       6.21751500      14.06337000      -4.67628637       4.20668347       1.39413803
42
Lattice="20.0 0.0 0.0 0.0 20.0 0.0 0.0 0.0 20.0" Properties=species:S:1:pos:R:3:dft_forces:R:3 dft_energy=9.224964770488441 energy=-620663.8176881336 pbc="T T T"
H       14.98375000       7.83095000       7.71586000      -6.18451890      10.87235929      10.36349642
H       14.04681000       7.08565000       8.86340000     -13.65590709     -14.63011861      12.64555223
H       15.28197000       8.17496000       9.36557100      30.28599745      19.46716587      39.79537309
C       14.49085000       8.05090000       8.70834000     -24.11923027     -37.10180446     -73.21825814
O       12.39526000       8.92548300       7.81514000      -4.39999709      -3.39922910       5.93049630
C       13.43357000       9.09165300       8.44034000      33.52088687      37.17278764       3.90713210
N       13.92265000      10.32909900       8.86432400     -12.28127462     -26.86351810     -10.45426956
H       14.85573000      10.30976100       9.24210700       3.52318303      -2.31888648       4.64021412
C       13.35580000      11.67388000       8.75917600     -12.08965559     -40.42841504      81.72853668
H       13.91287000      12.10277000       9.60832200       3.81872901      24.54323329     -15.05566216
C       13.39960000      12.25842000       7.45858000      -2.69418484      35.30364298     -87.41015340
C       11.95450000      11.67885000       9.41513800     -59.43946364      12.07128766      17.68002516
O       11.72159000      12.07426000      10.59156800      29.32138466     -15.07699266     -45.03248581
H       12.60421000      11.93218000       6.75899000       1.09642701     -11.36529538      11.16959986
H       13.20591000      13.33402000       7.42455000       4.91691815       7.66697707      11.22815209
H       14.31121000      12.09244000       6.85671000       3.95289788      -0.64686531      13.01030384
N       10.86949100      11.33840000       8.57188000      -9.38729406      47.55742495      70.04096108
H       11.02452500      10.60086500       7.94341000       8.39851855     -31.32088240     -31.46284875
C        9.47943500      11.43711000       9.18807000      15.45513510     -27.03665069       3.17005654
H        9.56138000      11.90296000      10.17163400      10.24197180      11.39761110      -2.02681263
C        8.51748000      12.18367000       8.29176000     -27.28420304      -1.20619259      77.32414313
C        8.97802000      10.05806900       9.53527300      21.54499396     -32.40909360      14.99084113
O        8.02663000       9.51455200       8.98786700      -8.58738831       0.28982111      -3.49436315
H        7.45604000      12.25930000       8.82958500      47.79656360      -5.44910237     -32.37235773
H        9.03504000      13.10508000       8.35058000      -2.77308401      40.59680752     -21.72772528
H        8.55297000      11.68048000       7.37999000     -13.79574040      -9.10438047     -45.29402148
N        9.69537300       9.42357300      10.55197700      20.77294822      40.61481995     -17.26858344
H       10.62414400       9.82288870      10.83017000     -29.37032632      -5.55478317      -4.15093976
C        9.29113000       8.19761000      11.13039000     -25.13183669     -13.53088664      28.25699252
H        9.19984000       7.38990000      10.37385200       0.59915726       6.20533984       0.95403878
C       10.30122200       7.73689000      12.24147000     -25.35177789       7.97157666     -15.23246834
C        7.77606000       8.41698000      11.77816000      -0.13100366     -55.33985930     -67.94405405
O        7.56670000       8.87078000      12.85506000       0.88240740      33.67968062      56.83548313
H       10.12560800       6.66598000      12.26941000      14.73997070     -11.84154628       3.60976117
H       11.34600000       8.02391000      11.97757000     -12.28174863      -8.60652651       4.47367028
H       10.00562000       8.09678000      13.24101000       3.82794853       8.54159883      -6.61512252
N        6.74029000       7.86605000      11.01579000      14.31217560      10.77613502     -23.61014224
H        6.93024000       7.56535000      10.04802200       7.69846326      12.16940798      15.29160123
C        5.30454000       7.94809000      11.30254000      18.04963539     -30.96407047      36.24656976
H        4.89582000       7.09660000      10.72703500      -8.01902518       4.88482759      11.88085366
H        5.22321000       7.80744000      12.42189000      -6.63475843      -3.73706873     -21.74443417
H        4.71803000       8.83563000      11.08193000       8.85598676      16.14956150     -11.05923820
42
Lattice="20.0 0.0 0.0 0.0 20.0 0.0 0.0 0.0 20.0" Properties=species:S:1:pos:R:3:dft_forces:R:3 dft_energy=7.9528737005312 energy=-620665.0897792035 pbc="T T T"
H       13.46147500      10.85659000       7.05505500      53.84482798      -6.43126543     -28.64461517
H       12.23785500      12.10803000       7.31535500       5.85401459      -3.66849116       4.44998157
H       11.77607500      10.45898400       6.95051500      -8.55795222      -5.71155052     -17.61354509
C       12.53015500      11.05369000       7.44101500     -65.16148981      40.28739671      23.79678415
O       12.25987500      11.25136000       9.88012100      -2.10149309     -31.18258963     -13.15997288
C       12.49692500      10.55109900       8.87394000      10.28469206      59.68192037     -20.81288366
N       12.87795500       9.29000000       8.75793900       4.50246646     -36.43700375     110.82417351
H       13.11046500       8.88761400       7.89881500       3.88933298     -10.67039497     -35.75134656
C       12.93152500       8.32810000       9.92358600       9.51987499      13.91839080      -3.92457571
H       13.29384500       7.45818000       9.40044700     -14.19201376     -23.80958246       0.68675098
C       13.96021500       8.54619000      11.02459500      -9.06424358      35.41171753      43.28978364
C       11.49648500       8.10671000      10.43016400      -1.80781946     -48.03902033     -38.43069485
O       10.92074500       7.13066000       9.88737800      -2.41722010      26.17477983      20.17427208
H       13.82741500       9.59915670      11.45380500      13.56702999     -22.95600679     -13.41522791
H       13.77659500       7.89251000      11.93733500      -2.37659734       6.41741245     -25.72707625
H       14.99909500       8.34475000      10.73257500      -2.20418762       7.50172491      -4.73999347
N       10.89635500       8.93882200      11.31138500      38.25175562      48.12256480      30.17922643
H       11.44382500       9.63968930      11.89055500     -12.24951587     -22.38245324     -32.38989615
C        9.51651000       8.78588800      11.65337500     -17.72730777     -13.48751462      11.24497949
H        9.41804200       7.70524000      11.46778500     -19.37212663       0.00239347      -1.29051919
C        9.22824600       9.01405200      13.20009500      42.91578880      -2.59711920       2.43382234
C        8.46102500       9.46999940      10.74294500     -34.44141661      -5.47065803      27.74375689
O        7.30254500       9.09451400      11.07783500      17.24997850      17.69898560     -31.34304242
H        8.41419500       8.46682000      13.68436500     -13.97882722       4.31870417     -18.94551655
H       10.09774400       8.46556000      13.68027500      -8.40024869      20.80980259      -4.57920887
H        9.20691400      10.09429700      13.54097500       2.34412758     -22.80930033     -11.17185141
N        8.74952500      10.40376300       9.78241400      44.79500620      -3.75764082      27.10218274
H        9.77287860      10.71358000       9.73622700     -38.27984079     -11.99449785      -0.61723013
C        7.76696500      11.15392000       8.98398600      -8.79550293     -40.25314940     -20.21894763
H        6.92386500      11.48727000       9.62718910       5.99741483      -7.20339412      -4.32900206
C        8.46891500      12.35161000       8.36437500       9.09420108      26.38298925     -46.75444998
C        7.26798500      10.02743800       7.80437500      21.59595016      34.47910050      29.05759743
O        7.75062500      10.21078200       6.70556500      -3.76273644      -2.15848109     -23.45122999
H        8.96680800      12.94013000       9.13580700      -1.68358112       3.40026007       8.90029495
H        9.28944700      12.19589000       7.57066500     -24.02490204     -15.76750848      25.40451163
H        7.80043500      13.07260000       7.78356500       5.50361366     -22.23242870      21.34899033
N        6.48314500       8.97759400       8.16194500      15.56735725      -0.34409421      45.98275975
H        6.45054500       8.72875200       9.19411200      -1.82544082      15.72946908     -28.58880036
C        6.09647500       7.96702000       7.20591500     -21.84172497      -9.15430570      -1.27423690
H        6.31388500       6.92740000       7.53466500     -14.50415013      10.07284460      12.56271877
H        5.00090500       8.17862000       6.99169500      23.65067020     -19.95196083      -4.97634731
H        6.71325500       7.97971000       6.31563500       0.34228230      18.05982663     -13.03222686
42
Lattice="20.0 0.0 0.0 0.0 20.0 0.0 0.0 0.0 20.0" Properties=species:S:1:pos:R:3:dft_forces:R:3 dft_energy=8.549742517760023 energy=-620664.4929103863 pbc="T T T"
H       13.27575500      13.43086000       5.46383000      -9.98287728      -2.25411285      35.50332020
H       13.18243500      11.82975000       6.31399000     -29.20003779      34.98984757      -5.68382087
H       13.13503500      13.16515000       7.41772000       9.51378394      16.96284621     -23.04986101
C       12.79079500      12.93174000       6.37596000      40.68793617     -29.62735889      -1.91515929
O       10.64290500      12.14812000       5.89745000     -54.65159504     -20.38011144     -20.92723887
C       11.27370500      13.03607000       6.39966000      55.73494763      26.90238702      36.37099769
N       10.83689500      14.09313000       7.21419000      36.74321499      -9.74510141      11.82723115
H       11.57926500      14.66923000       7.70539000     -23.51877659     -28.55917466     -22.89959946
C        9.49180230      14.33196000       7.71513000      15.03172460     -20.71985897       3.54275969
H        9.63169000      15.22759000       8.33488000      -9.82544631      -2.80531677       4.77277135
C        8.61562100      14.64002000       6.57322000     -41.74675869      62.80198058     -37.14683552
C        8.77006500      13.22661000       8.59424900      97.04194243     -28.05198267     -29.70675576
O        7.84813500      13.57798000       9.26236800     -46.32369231      -0.81910912      27.23289132
H        7.76825500      15.26529000       6.98474000      10.46101237     -11.61223152     -13.04490666
H        9.15378600      15.29206000       5.79889000     -13.04111457     -15.12723785      22.53105575
H        8.15293500      13.83469000       6.00354000       5.06278325     -12.29288790       4.68871731
N        9.41817970      11.93835000       8.56409700     -43.21583789      78.09666288       9.35488354
H       10.13747100      11.85231000       7.85622000      -4.14451691     -15.74096385      -1.67577179
C        8.70182100      10.85323800       9.15609600      10.97327627     -24.70273805     -29.56407839
H        7.82779500      11.25801600       9.64108300      -4.88982841       6.88489414      16.65047284
C        8.24761500       9.83090400       8.12653000      -3.62268983       2.12142526     -32.66541516
C        9.63155800       9.98049000       9.96002400       8.38029282      11.76496977      17.79224731
O       10.75230500       9.69440000       9.50260240     -25.99927718      -0.98011532      30.22188743
H        7.65670500      10.25626200       7.29866000      -5.08681562       0.75060621       7.98359285
H        9.12708900       9.40522000       7.65769000      11.04620290      -1.56109663      -6.60798865
H        7.76577500       8.98038000       8.57968700     -15.35701478      -8.13161469       7.75715770
N        9.05848600       9.61979000      11.16681000      76.36889207     -41.83812434       3.49072511
H        8.10423500       9.73735900      11.34219000     -40.61197588      12.08384896      -1.54380707
C        9.73532800       8.65117000      12.07906000      11.55826534     -27.17766902     -34.16886017
H       10.71631500       8.38584000      11.53292000     -25.35746602      10.24322793      17.31456252
C        9.93430600       9.28290000      13.43107000      19.22091706       6.64468897     -11.48561128
C        8.92237800       7.26185000      12.14847000      -3.44830111      -3.91924308     -37.55886976
O        8.36308500       6.79924000      11.12436000      10.82181784      24.32506963      36.26920379
H        8.94153400       9.48766000      13.80934000      -4.01672349       0.91076512      19.88085915
H       10.60775500       8.69532000      14.06246000     -10.31672336      -7.62958943       9.03535259
H       10.48507500      10.22064100      13.32204000      -3.22498258       7.22692877      -3.39152642
N        8.85298100       6.59891000      13.34679000     -22.09378042     -17.37274740      23.12380676
H        9.54064630       6.73384000      14.12624000     -25.17923781       3.18281929     -23.70826256
C        7.73226500       5.55362000      13.54399000      31.37053507      17.40024005     -27.98597661
H        7.77882500       5.15789000      14.53617000       3.10223738      -0.31531462      21.64453631
H        6.72424500       5.95634000      13.33661000      10.75316917       5.81697061       1.14552509
H        7.88992500       4.70794000      12.86327000       0.98277690       2.25330703      -3.40396921
42
Lattice="20.0 0.0 0.0 0.0 20.0 0.0 0.0 0.0 20.0" Properties=species:S:1:pos:R:3:dft_forces:R:3 dft_energy=10.17442404734902 energy=-620662.8682288567 pbc="T T T"
H        7.64660000       7.94282000      12.78897000     -31.73457567      29.19541619      35.01200759
H        8.32768000       6.23593000      12.50574000      -2.53943204      56.25612294      -4.41499955
H        7.59388000       7.05662000      11.13968000      19.13441001      28.40038090      38.75954012
C        8.18042000       7.37087000      12.12117000      21.27788865    -117.21206691     -80.19712500
O       10.24996500       7.42685000      10.87239600      46.08668671     -39.20072604     -49.48451748
C        9.56914600       7.87564000      11.73850000     -45.57356959      34.41427947      53.00203607
N        9.93038100       8.93986800      12.54200000      20.37572684     -14.36135426       9.91294877
H        9.12162200       9.48533300      12.75557000      -8.40127966      13.30667934      17.20542144
C       11.21211000       9.66314500      12.64754000      -4.15403268      33.76322509     -24.54832891
H       11.07767000      10.42627900      13.39302000     -11.99805293       8.34596256      15.40169034
C       12.50977000       9.02135700      12.96873000       9.43678083     -89.07725078      14.76473779
C       11.37183000      10.51072500      11.38478000      -7.91685207     -26.34554236      -3.00643972
O       11.01304000      11.67101000      11.36945000      -1.27421320      29.21603567      -8.58350142
H       12.93048000       8.38057000      12.14476000      -5.42700160      14.48649322      10.00245394
H       13.31669000       9.63055900      13.36564000      -3.38018570      17.48745811      -5.16620064
H       12.34544000       8.25457000      13.77475000       1.36144311       9.35420808      -5.86770166
N       11.79733000       9.79475100      10.30617300       9.80226716     -38.47477789      10.27642056
H       11.93662000       8.73621000      10.46490000      -8.55216928      47.50113612     -15.51960062
C       11.91636000      10.44108000       9.02541000      37.43633786      46.65656667       8.05238372
H       12.35824000      11.46509000       9.26114300      -6.18373678     -21.28262876      -8.91703940
C       12.80067000       9.63126300       8.02864000       6.56610976      41.85270019      19.17636000
C       10.57537800      10.75044900       8.34750000      20.46175987     -60.85308354      -2.43347869
O       10.50127300      11.50809000       7.40576000      -8.38256807      40.36359401     -16.23654256
H       13.73392000       9.21283900       8.45176000     -13.65057447      -0.49892878      -1.64293466
H       12.08330000       8.99000200       7.65221000     -22.21986740     -62.33887164     -16.54536085
H       13.01350000      10.19681500       7.12224000       8.68018785      15.11479506       3.19005981
N        9.67344600       9.75914900       8.59293000       0.07276534     -28.66606418      56.56719279
H        9.86705230       9.17301200       9.46697400     -11.25340504      19.88157016     -34.74561330
C        8.35635000       9.78842200       7.98302000      21.97113003     -32.43054261     -17.31799910
H        8.59329000      10.50245100       7.23863000      -4.07694661      18.30880101     -35.13039189
C        7.89746000       8.48667000       7.27052000      -1.58017558      44.66749718     -14.10432169
C        7.41702000      10.49614400       8.90249000      25.77601791      19.63425482     -21.98487635
O        6.65165000       9.97433450       9.66269900     -37.56052880     -26.66028580      38.23540224
H        7.65684000       8.79271000       6.22525000       1.85634635     -12.60881636      10.88006197
H        8.54677000       7.64913000       7.28150000      32.99900054     -12.40428053      -2.30043559
H        7.03914000       8.08637000       7.72449000     -39.60612412      -6.31546449      17.00147813
N        7.65292000      11.83046000       8.84127000      -5.97802777      27.04459038       1.90540651
H        8.37360000      12.18835000       8.23335000       7.22389510      -3.08549294      -6.37412338
C        7.28608000      12.67139000       9.94364000     -35.10894288      15.26659714      -6.09995530
H        7.79606000      12.38736000      10.80128400      37.98026571     -12.09119613      44.30878921
H        7.39475000      13.76407000       9.85147300       3.09653740      -8.33160002     -15.77402613
H        6.26608000      12.46275000      10.25336300     -15.04333787       1.72079100      -7.25868752
42
Lattice="20.0 0.0 0.0 0.0 20.0 0.0 0.0 0.0 20.0" Properties=species:S:1:pos:R:3:dft_forces:R:3 dft_energy=19.715107072493993 energy=-620653.3275458316 pbc="T T T"
H       14.00417000      13.22531000       7.69028000      11.15068681     -10.18753161       5.86609003
H       13.46206000      12.09510000       6.40172000      43.65015065       0.04796472      21.29317551
H       15.33436000      11.98670000       7.12855000     -23.77130605      24.50365335     -21.76457965
C       14.23363000      12.23151000       7.27134000     -16.77537479     -47.37848573      -0.98114274
O       13.83490000      11.25537000       9.49855200       6.53487242      11.45230014      16.15631616
C       13.99096000      11.07064000       8.30442000     -21.17313217     -13.23925125     -26.22917261
N       13.95340000       9.73255100       7.82865000      -5.83737680      50.64892598     -35.73605970
H       13.81733000       9.50706580       6.80323000       7.34950807      19.07421059      35.33611275
C       13.56779000       8.67043200       8.67980000     -12.19299004     -74.84305002      24.93334450
H       13.43424000       7.81762000       7.96469000       4.05165811       8.10187049      12.05197170
C       14.57680000       8.18492000       9.80500300      44.28366662      28.89702614     -65.44577803
C       12.17336000       8.57664200       9.46190800     -19.02775749      58.95656474       2.40419664
O       11.25073000       7.83190000       9.17322500       3.04015377     -41.82556305     -18.31970327
H       14.27488000       8.57907500      10.73392300      -2.60339985       5.22679112      31.41141853
H       14.65093000       7.12145000       9.74213200      -8.19817772     -23.24728667      10.01009737
H       15.65433000       8.50734200       9.55822600     -30.90932217      -0.63924676       7.73829205
N       11.97966000       9.47919930      10.47543800      19.42853396     -21.28357678      23.52671627
H       12.72338000      10.19829800      10.47100800      -7.81677646      -2.51347993      17.30828187
C       11.13500900       9.13207700      11.73766000     -23.50597828      27.62264703     -69.47617674
H       11.03754000       7.98713000      11.83014000       8.11411183      35.28361601      -1.74587804
C       11.61930000       9.88111800      12.92389000     -66.39735551      -6.10234906      -0.10551205
C        9.69897300       9.74636500      11.42157000       6.47608318     -36.82841850       0.50691942
O        9.06790000      10.38833600      12.24195000      -4.86881787      20.74391503      21.28488031
H       12.43357000       9.37972900      13.23884000      66.58530095     -34.44722325      47.05390656
H       11.81106000      10.90396000      12.82906000      16.31996853      41.24122574     -25.36374667
H       10.74702900       9.98092900      13.59828000      10.24011130     -18.22975964       9.00434041
N        9.20116000       9.44244866      10.21632400     -52.89846462      35.30601304      20.80766954
H        9.56042000       8.68200600       9.69166100      19.49750259     -21.96520489     -17.97948173
C        7.80150000       9.88493800       9.82820120       5.41707107      -0.76343532      37.28098069
H        7.41531000      10.74994000      10.47897600      22.07624201     -23.40797647     -17.88965661
C        7.97389000      10.17127100       8.40276000      33.41589339      24.15454410     -47.84360921
C        6.85514000       8.67693700       9.95211700      22.39762160      37.38360412      25.47513930
O        7.05375000       7.71374000       9.25451000      -6.69587033     -39.48145917     -21.06932372
H        7.12249000      10.18656500       7.74987000     -22.42108515       0.40852655      -2.61497757
H        8.53228000      11.11324000       8.22833000      -5.01173224      -2.14996074       5.44603315
H        8.64991000       9.40396250       7.99210000      -7.08459506      -0.99611676      -3.46516406
N        5.91613000       8.74131900      10.92201000      -5.11369205       3.31806653     -22.14793620
H        5.72555000       9.54870500      11.48026000       9.67364422      16.54654588       0.42160570
C        5.00501000       7.67740000      11.10259000       2.27767121     -55.25003418      22.99072811
H        5.59347000       6.77469000      11.45375000     -12.67553344      12.99217292       0.52760764
H        4.34567000       8.00136000      11.90847000     -10.14937371      -8.49771724      -0.23119778
H        4.45598000       7.24179000      10.23887000       3.14748175      21.36664725      -0.42666577
42
Lattice="20.0 0.0 0.0 0.0 20.0 0.0 0.0 0.0 20.0" Properties=species:S:1:pos:R:3:dft_forces:R:3 dft_energy=11.976553063257597 energy=-620661.0660998408 pbc="T T T"
H       11.89591000      11.69648000       7.49508000       0.10196407      -9.96740081     -15.57932603
H       12.37520000      10.35140000       6.20902000       3.65370201      15.36412495      53.14305440
H       13.55562000      11.15127000       7.48160000     -17.34608427     -15.34006888      -8.48931539
C       12.49478000      10.78116000       7.30902000      11.83743424      -8.08082439     -10.38628451
O       11.42889000      10.50719000       9.41206650     -25.34928933      32.90443530      36.89987569
C       12.08000000       9.93669100       8.56662900       9.29261032      12.74177650     -36.64533168
N       12.41761000       8.66046300       8.77363600      40.73036018     -44.81408515      -6.52457453
H       13.09950000       8.21879000       8.12715000     -16.13723721       8.20560784      10.40611002
C       12.33517000       8.02167000      10.12146700     -12.65361042     -18.33712318       6.26866774
H       12.56535000       6.93517000      10.01581800      -3.52680921      12.32002504     -12.47763376
C       13.39334000       8.52018500      11.14383000     -30.40935886      27.21961901      -4.52538490
C       10.74569000       7.90566000      10.52789000      31.54888178      23.91090235      -3.37285038
O       10.04845300       7.13562000       9.87446700       5.61819402       5.64608958       8.60153754
H       13.11322000       9.48938050      11.58727000       9.10493744      10.81985070     -16.65331690
H       13.35892000       7.96075000      12.03874000      -4.04912215     -35.42735990      24.14150880
H       14.43559000       8.47542700      10.82067000      -1.23907712       6.07902771     -10.21976437
N       10.24304500       8.73272100      11.50421000     -14.34748943       4.90945248      17.24808245
H       10.77376000       9.44015140      12.10892000     -15.53346545     -34.28570393     -35.36407941
C        8.72042200       8.67993300      11.70074000      73.32929526       6.32193474      40.60699876
H        8.43640000       7.65100000      11.73242000      -2.37016264     -23.33841533      -8.10518857
C        8.46620000       9.16061600      13.15488000     -34.32279531     -15.12652684       1.94197648
C        7.96344000       9.30966100      10.59775000      43.64031492      56.33232024      17.30306775
O        6.78355000       9.09451100      10.67798000     -82.07657940     -13.79526639     -29.09480731
H        7.49883000       8.83091700      13.61945000       3.85916217       9.81612014     -23.16540124
H        9.11958300       8.63936800      13.81228000      28.31387386     -17.28126324       9.71298715
H        8.60501400      10.18987900      13.41209000       0.44137079      25.67446101      -8.73727065
N        8.56759200      10.28673500       9.85950300      35.82043369      -9.74466295      -1.30191916
H        9.60985480      10.41148300       9.95425000     -22.86179707      -9.50414967      -7.47713558
C        7.92067000      11.07319000       8.81417100     -43.62941266      -5.26042222       6.61496847
H        6.95916000      11.34236000       9.25650800     -11.55247055       5.11608581       5.52751568
C        8.61132400      12.38851000       8.53409000      61.79909138     -19.31749684     -15.42894598
C        7.56017000      10.19799200       7.56671000      78.89643828      10.45102259      -4.64535714
O        8.39603000      10.29007600       6.65640000     -20.76097944      -7.34620184     -19.28609360
H        8.72925100      12.88981000       9.46697350       6.98940176      11.46383046      24.94460227
H        9.65781200      12.37205000       8.02362000     -35.36680497     -12.97060541      20.10482944
H        8.07378000      13.06483000       7.93284000     -29.40433662      13.64180526     -23.70174491
N        6.59934000       9.28796600       7.71688000     -26.96270494     -17.15683530      76.66763763
H        6.30622000       9.21515200       8.79646300      11.47334624       4.25822034     -58.18368948
C        6.27732000       8.09472000       6.92569000      30.19629083     -28.38390902      24.87124904
H        7.12763000       7.41381000       6.52485000     -16.58091169      39.71455418       5.04597955
H        5.83582000       7.39343000       7.66461000      -8.74049393       8.20748019      -9.34919541
H        5.56441000       8.39190000       6.18772000     -11.42582661      -5.64051995     -21.33595502
42
Lattice="20.0 0.0 0.0 0.0 20.0 0.0 0.0 0.0 20.0" Properties=species:S:1:pos:R:3:dft_forces:R:3 dft_energy=-3.949934952892363 energy=-620676.992587857 pbc="T T T"
H        7.89846500       6.63151000      11.97706000      27.81308103      -0.68314731     -13.45385982
H        9.53102500       7.20922000      12.44970000       5.13511736      -6.88327065       4.93116219
H        9.44256500       6.23452000      10.92854000     -10.39812294       4.65130598       7.56726881
C        8.91858500       6.96160000      11.58341000     -14.84484568      25.56946753      14.42333122
O        8.87365500       9.46915800      11.32397000      11.04719832     -20.56414629       0.25766775
C        8.67984500       8.32392000      10.87927900     -19.68532953       9.26658711      -8.26804697
N        8.04933500       8.12195000       9.68491900      -3.41360349      -4.39722413      -6.17848710
H        8.03793500       7.11692000       9.48092800      -4.89540989      14.99143364     -16.65165786
C        7.84564500       9.15066100       8.59604000      -7.66971448     -43.95162177       8.96143055
H        7.43101500       8.53277000       7.76702000      16.57830463       6.01182477      -1.05969232
C        6.79786500      10.17337000       8.91945600      54.28103678      -5.38834599      96.10565181
C        9.22409500       9.68896200       8.26595000      17.62421034      -4.20943274      -5.99131193
O       10.11714900       8.85318000       8.06989000       5.88471867      19.29972142      -4.96107230
H        7.38252500      10.74211000       9.82166100     -49.94134577     -20.27653999     -32.25373643
H        6.75126500      10.82873000       8.11837000     -20.02851363      31.60872570     -39.25748888
H        5.89953500       9.62895000       9.24101700      -2.54854490      16.94281924      -0.95207638
N        9.39231500      11.05839000       8.24353000     -24.21569155     -23.90082961      -1.72337436
H        8.64018500      11.60398000       8.67192000       6.34583676      -0.20008842      -6.94843534
C       10.61114920      11.71054000       7.91971000      63.89979051     -33.72992580      49.43249475
H       11.28329800      11.00813000       7.33999000     -23.63905693      13.01077785      -3.58155751
C       10.45422760      13.08481000       7.37916000     -17.88384997      34.54356603       5.64957356
C       11.63447500      11.77366000       9.22962800     -18.07061038      -6.29081591      12.95460753
O       12.72329500      12.31241000       9.08009800      -2.35294418      -1.96181384      -0.82475223
H        9.74644700      13.04504000       6.48407000      13.28179376      10.32005329      25.82697411
H       10.09570500      13.76548000       8.29009000       7.59877871     -22.15267631     -48.37059116
H       11.43522600      13.48187000       7.03476000     -11.67188583      -4.07042896       6.28649056
N       11.23490700      11.16294000      10.43092600      10.92768825      19.51421149     -23.89075687
H       10.34042200      10.74012500      10.49474600     -28.74676459     -12.33590441       0.22793539
C       12.18669500      10.89137500      11.51676000      30.12637418      16.14778396     -57.47433172
H       13.01462500      11.48379000      11.01438000       5.20523546     -14.29819227      22.02895939
C       11.93646500      11.47749000      12.86659000      -2.18470576     -34.27089108      20.57623357
C       12.72630500       9.42006900      11.46984000     -21.09847541      13.27018048     -37.02999176
O       13.39191500       8.92749000      12.35648000      11.24565496      -3.09051746      20.84061332
H       12.06180500      12.54652000      12.90196000      -1.29770046      12.79676180      -1.01681683
H       10.96064000      11.16028000      13.27032000      -0.04078997       5.74592819      -1.33167521
H       12.69601500      10.98431000      13.51593000      -5.82578722       9.59557458      -1.96023776
N       12.53402500       8.79430000      10.24808600     -30.51518186      13.52057690     -14.75004344
H       11.82791500       9.12531800       9.52320200      27.56872826      -6.86143059      31.10508880
C       13.25541500       7.60024000       9.92901250      32.32614164      31.75235109     -57.80874662
H       14.10046500       7.80772000       9.17769900     -18.82879129       4.42953984      10.81735029
H       13.81936500       7.31215000      10.75441700      11.38755021     -25.82460406      42.91815886
H       12.69373500       6.85416000       9.40501900     -18.47956354     -17.64731838       4.82769740
42
Lattice="20.0 0.0 0.0 0.0 20.0 0.0 0.0 0.0 20.0" Properties=species:S:1:pos:R:3:dft_forces:R:3 dft_energy=0.20971066562924534 energy=-620672.8329422384 pbc="T T T"
H       11.20718500      11.68009500      12.86171500       8.25727506     -12.66083909      10.13056732
H       12.51040500      10.92506500      12.00970500      -9.87972059     -14.22199497      -7.11061827
H       12.30528500      10.43808900      13.62885500       1.30209691      -5.96994588      20.50299884
C       11.72497500      10.69787800      12.76323500       1.50845768      25.37263438     -18.41604604
O        9.49285200      10.27446800      12.20235500       4.49201452     -13.82252203      16.98571725
C       10.61096000       9.74409480      12.38086500       8.96218896      20.36707613      -9.03910913
N       10.88870200       8.43016500      12.17466500      53.62002817     -46.64732345      -0.58199332
H       11.92538500       8.05332500      12.13600500     -58.52758460      36.02283647       7.56592973
C        9.95449500       7.36247500      11.76450500     -37.51443121       1.67243001     -43.78050373
H       10.44383100       6.35684500      11.70014500       9.04209540      25.54280440      -8.30432067
C        8.77898500       7.03715500      12.72190500      36.04760356     -19.45021997       3.78040520
C        9.34881600       7.70597500      10.26072700      16.28252164     -27.12718683     -22.56435504
O        9.45781200       6.93000500       9.26860400      -3.03118311      30.11641994      52.29587789
H        9.34076600       6.77170500      13.65007500     -17.06606215      -1.14573247      -1.62275363
H        8.13679500       7.88615500      12.94208500     -10.58315321      -1.91909358      -4.72845130
H        8.32084500       6.08214500      12.30174500      -0.41681819      30.26004534      14.08630926
N        8.73415500       8.93164700      10.18908900      16.98405822     -43.49396396     -15.14347274
H        8.69997500       9.49336500      11.01044500      -0.65676740      15.07509662      30.73381953
C        8.08654500       9.40400700       9.02345200     -47.49876607     -45.39676341     -33.25176701
H        7.78619500       8.46694500       8.41443500      21.58149282      29.72986381       8.44783941
C        6.74801500      10.03117500       9.38994400     -30.93195621      49.92463687     -37.27244849
C        8.91201500      10.37121900       8.14592500       6.48466279      10.73732535      -3.19308163
O        8.72648500      10.54517300       6.94059500      -5.32082309      -7.34917626       6.45348470
H        5.88865500       9.55887100       9.87870200      12.80233143     -25.81761239      -2.26163778
H        6.85313500      10.92408500       9.96131500      17.11144872      21.57627870      27.37106559
H        6.29158500      10.56140000       8.49411500       9.82612177     -23.11551156       5.78480895
N        9.85277400      11.08666500       8.86391600     -21.92443992     -30.26051935      10.85055477
H       10.04324700      10.58777000       9.75133910       8.90465586      20.18233027      -7.47867612
C       10.79170900      11.92536500       8.18325500      43.56767270       4.07420920     -26.99541171
H       10.32442100      12.20720500       7.22000500       5.12006750     -13.89860083       0.69937864
C       11.11889000      13.19762500       8.87622600     -18.02700135      55.96958317     -41.80897266
C       12.16443500      11.14778500       7.98955500     -29.91022507       4.53336014      16.85785273
O       13.15189500      11.32641500       8.70173000      -1.66005832       6.65009270      -3.52505537
H       10.19863770      13.79567500       8.78141600      -2.71094114       1.52618570      20.76820811
H       11.42136500      12.98495500       9.85080100      12.42004140       3.55264282      45.00392663
H       11.85066500      13.91785500       8.36130500      -9.41337652     -35.34523746      10.62554166
N       12.03371500      10.14400500       7.11492500      44.21374996     -20.97179592       3.40880413
H       11.09919500       9.98933200       6.78338500      -8.40821208     -12.61651904     -12.46187289
C       13.12062500       9.13734700       7.14816500       1.57421489     -20.13018904       9.00301318
H       13.22405500       8.60121500       8.15189500     -15.64663562      10.62114520     -20.04522253
H       13.01407500       8.36433500       6.34992500      -1.05613013      14.61909785       9.21631822
H       14.11134500       9.62590500       7.09947500      -9.92059220       3.23464056     -10.98673819
42
Lattice="20.0 0.0 0.0 0.0 20.0 0.0 0.0 0.0 20.0" Properties=species:S:1:pos:R:3:dft_forces:R:3 dft_energy=20.328107479494065 energy=-620652.7145454246 pbc="T T T"
H       10.22398100      11.09218500      12.73269000      -7.89838933     -33.54292839       0.10849737
H       10.04637600       9.24372500      13.27008000     -17.75278588      44.23673951      -3.10290100
H        9.21938600      10.73731800      13.92921000     -43.35863376      22.11558494      71.77347201
C        9.49876670      10.26760500      13.07996000      74.79493789     -45.25159748     -86.41461138
O        8.03130500      11.31908500      11.48559000      24.20170822     -85.71805192      22.31905424
C        8.47109000      10.16752000      11.96802000     -20.11810175     113.63802248       0.37623217
N        8.02355500       8.96878500      11.60739000     -34.21851285      30.43412595     -10.57034305
H        8.58155100       8.20567500      11.82240000      26.19456980     -42.58196642      15.00221740
C        6.88861500       8.74771500      10.71316000      53.50294740       2.53381501     -42.10807372
H        6.59312500       7.71701500      10.79391000       4.98314937     -18.04382875      -0.65282007
C        5.72543500       9.54553400      10.97978000     -82.74683123      61.36940023      17.51767632
C        7.35873500       8.91071500       9.19411180     -37.45980142     -10.03471040      -7.72958210
O        7.30495500       7.88394500       8.50009900      18.41521652      26.63374117       0.54827572
H        5.22486500       9.33699500      11.94470000      13.57129610       3.80899993       4.50772799
H        5.73814500      10.65747800      10.83037000      18.65269613     -15.80459985      14.27970583
H        4.87110500       9.37339600      10.31948000       3.42489681     -21.00829478     -15.14359124
N        7.51271500      10.22410200       8.75629400     -26.66431489     -29.64430479      68.26424861
H        7.34977500      10.94001000       9.49539700       8.64348754     -12.03786987      -7.24846073
C        7.85549500      10.66297800       7.47570000      31.48548278       4.89865687      11.65930083
H        7.48249500      10.04477460       6.71152000      -4.13629281     -40.72822713     -19.84116071
C        7.22544500      11.97167500       7.13953000     -18.47897103      47.72652845      14.79388948
C        9.41872610      10.67696300       7.34445000     -51.82471076       8.69974081     -56.32793564
O        9.82095900      10.70447500       6.18944000      23.36981857      -0.33988380     -16.84801700
H        6.10668500      12.05188500       7.39632000      32.98845379      -8.76850799      -3.58998306
H        7.76538500      12.80853500       7.65060000     -11.26017155      -5.88990909      -4.54189234
H        7.30852500      12.14294500       6.07079000       2.56037148       3.04367330      -7.66593424
N       10.16065400      10.73051700       8.42895100      88.68287346       2.47990808     -55.19528588
H        9.74755500      10.67623700       9.27734260     -33.25413706      -4.96603756      82.30659333
C       11.65074500      10.77433300       8.30701400       9.00934123      10.52178061      49.12059538
H       11.94137500      11.02154500       7.29968000      -8.16531689      -5.45662730     -17.58048280
C       12.17522500      11.99510500       9.19578090     -67.17248232      12.01855392      37.47840636
C       12.35198500       9.43191500       8.81806100       7.25093744      25.34798580      -6.61247991
O       12.18666500       9.01739700       9.97032500       2.39376840      -0.49525164     -24.04895811
H       11.54226500      12.92691500       8.91126100      16.53516961     -32.15905270       8.89395505
H       11.95171500      11.78207500      10.32223000       1.40524175       4.67503024     -39.08767437
H       13.17789500      12.38157500       9.23886410      23.37349215     -12.93043296     -17.62444734
N       13.29306500       8.98137100       7.90272000     -14.72539486     -43.86819580      83.23138918
H       13.26349500       9.33155500       7.00874000      -2.31503514      22.24676754     -57.67495696
C       14.30954500       7.94414500       8.24359000     -33.93055104     -15.35500023      34.01006642
H       15.12889500       8.57222500       8.67655000      -0.84735071     -29.25407507      -0.09241370
H       13.85301500       7.07308500       8.99627400      25.37844102      59.05800313     -34.74561330
H       14.58552500       7.37405500       7.34890000       5.50978766       8.39234455      -1.74349614
42
Lattice="20.0 0.0 0.0 0.0 20.0 0.0 0.0 0.0 20.0" Properties=species:S:1:pos:R:3:dft_forces:R:3 dft_energy=47.514445075416006 energy=-620625.5282078286 pbc="T T T"
H        4.81582500      12.93689500      11.28597000       3.60782958     -12.42691456      19.30742410
H        5.88848500      12.35959500      12.79273000     -43.92898774       1.68366407     -31.17500545
H        4.16000500      11.55591500      12.46933000      31.40501938      34.05711203     -17.54919807
C        5.08051500      12.07896500      11.96079000      -6.52406497      12.96420625      55.95192626
O        6.84933500      11.27210300      10.59658200      23.09832865      13.84871115     -23.15817257
C        5.84113500      11.06184100      11.23710000      -9.31212773     -37.70806478       2.93493513
N        5.36206500       9.78850500      11.43018000      -2.05661608     -32.86248531     -22.16535611
H        4.64168500       9.66759800      12.16099000      15.20781976      -8.00257700     -17.12128446
C        6.13886500       8.63661500      10.81446200       4.87668645      32.36655110      -7.57958125
H        5.63625500       7.66530500      10.96362900       3.70527443       7.82763131      17.89641127
C        6.23042500       8.72848500       9.19473800     -18.50610817      28.62826179      84.72203589
C        7.57591500       8.76478500      11.47544000      -6.46046452     -41.42478658      -6.69723311
O        7.77732500       9.33180500      12.52913000       2.38075679       9.23684290       5.07908923
H        6.79416500       9.61039800       9.03261000      15.03267262      19.25895646     -18.44934533
H        6.65894500       7.85101500       8.84011000      16.80665952     -38.39467000     -22.75170797
H        5.21207500       8.84476500       8.92187000     -23.85769459       0.99512252     -19.70144591
N        8.52975400       7.97513500      10.83473800      13.46890968       7.05252820     -48.43316064
H        8.19373500       7.61617500       9.86265700      30.02126219      20.73763439      46.76748529
C       10.00252600       8.29838500      10.99953600      -5.87074719      55.79396202      62.11703440
H       10.06118900       9.02484500      11.99123000     -14.44845382     -27.96109103     -55.21282430
C       10.79418500       7.09505500      11.46135000      -4.43397184     -52.38795456     -15.42467988
C       10.60071500       9.16190500       9.75258100     -36.71667036       5.62637071     -44.19218246
O       10.20327800       8.94982500       8.57282000      23.48938789       4.94467151      61.69990454
H       10.34803700       6.52996500      12.38351000       9.43967229      26.72475132     -35.98740413
H       10.73975500       6.39061500      10.55808800      10.28809309       5.81181574      28.05838183
H       11.86332500       7.28955500      11.70768000     -12.02258301       3.60041130      -7.49127297
N       11.42099500      10.26293610      10.08381600      -6.14069656      24.85027404      -3.83210798
H       11.39229500      10.47792100      11.06494700       2.34444753      -9.33415740      18.42398573
C       11.33789500      11.65501500       9.40314800      -8.30076559      -2.60578176     -40.11616017
H       10.55745500      11.53184500       8.62589000      16.32992276      -5.26070662      -5.71016404
C       10.75319500      12.74325500      10.29962800    -122.24511781     -77.37130725     -36.28911226
C       12.63023500      12.27223500       8.65811000      -8.82636106     -23.04405437     -34.41167241
O       12.53742500      12.98731500       7.63829000     -13.07796894     -12.44160891      36.32833669
H       10.34082100      13.60938500       9.79032300      -3.21416328      -1.55269478     -22.68380586
H        9.78398700      12.25499500      10.80010200      48.57251993      27.09519107      -5.33704613
H       11.46419500      13.15438500      10.82927200      81.44910708      41.16360641      92.28156647
N       13.85491500      11.82751500       9.04595000      15.30973216     -54.38970385      92.95264783
H       13.98043500      11.09806000       9.89673900     -22.22946613      51.13573548     -55.74490187
C       15.01145500      11.90183500       8.21409000       5.25465113       6.84652294     -35.26394454
H       15.52889500      10.97547700       8.16955000      12.91716064     -32.39700632      15.74795552
H       14.58007500      11.87880500       7.20727000       9.23050300      23.43570612      -9.62365974
H       15.83999500      12.64360500       8.36280000     -26.06362420       3.87978165       1.83310795
42
Lattice="20.0 0.0 0.0 0.0 20.0 0.0 0.0 0.0 20.0" Properties=species:S:1:pos:R:3:dft_forces:R:3 dft_energy=3.7194836721755564 energy=-620669.3231692319 pbc="T T T"
H        7.82515000      13.32258000       7.99686000     -27.82185024      -7.46141026      12.48545494
H        7.53213000      13.90230000       6.26983000     -16.92717687      -8.36318101     -11.59263115
H        8.29628000      14.93139000       7.48349000      -2.17127939       9.45389263       3.54172872
C        8.12931000      13.91448000       7.15727000      56.06948103      -5.86793867      -0.04792135
O       10.52270400      13.79958000       7.61679000     -24.80808704      -7.95338648     -16.33987700
C        9.55713700      13.31533000       6.99503000      20.03301674      37.64111070      35.39086104
N        9.68344100      12.15486000       6.28907000     -76.69394525      46.49729891      18.97052064
H        8.85737000      12.07056000       5.70420000       6.93385950     -18.69796420      -8.84106725
C       10.91918800      11.70526000       5.92415000      57.15532218     -36.08078434     -77.35009525
H       10.79438800      11.10079900       4.98943000      -8.33349606       0.90368339      12.18291730
C       11.97519000      12.71281000       5.40305000      22.14900273     -48.90195771     -17.52371996
C       11.58591000      10.70776200       6.83597000      36.35357778     -29.59086003      50.85654289
O       12.50075000       9.95247000       6.47356000     -12.05493427      13.48526306      -4.91450070
H       12.61480000      13.13377000       6.10976000      20.80743254      14.70489387      42.41546998
H       12.65320000      12.08571000       4.77087000      -7.62149569       9.23277826       5.17528981
H       11.67909000      13.53175000       4.80988000     -28.07272066      20.92261726     -21.27385955
N       11.16525000      10.79105000       8.14975000     -12.47976681      18.33641216     -28.51366958
H       10.27822200      11.28957000       8.18321000       2.99827488       2.80564858      19.78119829
C       11.59605000      10.08914710       9.34529600     -29.82229599      -0.05054204      -0.47007453
H       12.12320000       9.23227000       8.99280400      11.76997059     -26.66158933      -2.94387024
C       12.44615000      10.89326000      10.30665000     -34.05094989      40.99805800       7.34871410
C       10.30273500       9.77727900      10.11573900     -29.09125222       8.53958428     -20.76133495
O        9.42336400      10.67434600      10.18937900      24.10275838     -21.23487213       3.99954058
H       13.23023000      11.32130000       9.69021500      22.14390711      -3.23305262      10.53828805
H       11.79452000      11.82166000      10.59667000      24.19530907     -34.57248071      -1.39602223
H       12.67940000      10.26061000      11.20772000       7.69059468      17.86714108     -17.77506440
N       10.06391070       8.52449000      10.58735000     -35.12114867      46.31290855       9.89056360
H       10.72339600       7.79774000      10.66003000      24.09813677     -25.62089774      -2.76522727
C        8.82493000       8.38909000      11.36947000     -14.64457595     -12.01274728      -0.37242823
H        8.69060000       9.30063000      11.94086000       3.80142760       4.89226957      14.71828469
C        7.56697000       8.24714000      10.48498000      -8.20659141     -16.58920689      19.76022330
C        8.95206000       7.05646000      12.17414000      18.94492404      36.48321985      -7.49438959
O        9.55507600       6.16803000      11.61521000      14.67242411     -39.27917489      -6.44427703
H        6.76977000       7.78679000      11.10380000       1.66863792       3.31423889      -0.51990141
H        7.12183000       9.16130200      10.07710000      13.64287179       0.07257633      -5.35932465
H        7.83003000       7.47165000       9.77792100      -4.84150297      -0.69196155     -19.75382415
N        8.55915000       7.03453000      13.46844000       7.42897605     -26.33558813     -13.67652658
H        7.84928000       7.67849000      13.66180000     -26.79715653      31.96553762      14.98207192
C        8.58155000       5.84164000      14.33564000      31.07783315       8.90778433     -45.39688191
H        7.88822000       5.06861000      14.03377000      -5.35443049     -10.44859328      -8.32003414
H        9.63236700       5.46057000      14.34082000     -17.72707077       2.24937274       6.77238758
H        8.25195000       6.26192000      15.22913000      -5.09592848       4.06177825      51.03678565
42
Lattice="20.0 0.0 0.0 0.0 20.0 0.0 0.0 0.0 20.0" Properties=species:S:1:pos:R:3:dft_forces:R:3 dft_energy=33.72424043226056 energy=-620639.3184124718 pbc="T T T"
H       12.05438000      14.08625000       7.38158000      -0.36840269     -27.54846428     -15.00755002
H       12.35383000      13.53991000       5.68792000     -15.83268502     -19.95729345      30.89676088
H       12.75980000      12.42244000       7.09082000       7.58970139      -0.10157076       0.16938316
C       12.02433000      13.13002000       6.72932000      15.86740634      81.05401874     -15.22986128
O       10.90213300      11.21764000       6.91687000     -54.53107769     -39.89775951       3.54193017
C       10.69815000      12.41719000       6.79577000      56.14864090      27.07978571      -6.66949160
N        9.57188300      13.17652000       6.74178000      13.40088907     -27.40969750       7.65176131
H        9.74142400      14.19361000       6.71596000     -11.27035094     -18.17465584       2.95620638
C        8.23290000      12.59766000       6.94362000     -28.37431029      71.17846945      18.24006939
H        7.66344000      13.55212000       6.90226000     -12.79770982     -14.19545034     -12.92320429
C        7.84747000      11.54877000       5.95803000      24.95609704     -23.51984311     -22.37664661
C        7.91121000      12.24815000       8.49755000      80.18480071     -41.88102236     -83.20401503
O        7.49006000      13.10342000       9.22597700     -20.67530191       2.98839174      34.92988515
H        8.30637000      10.60236800       6.32035000     -15.62992673       1.30456177     -12.97629354
H        6.78794000      11.45446000       5.76492000     -13.68956189      -3.68369507      12.90696940
H        8.26005000      11.66865000       4.93285000       4.46282728       8.98956311      10.56726198
N        8.50742000      10.99889200       8.69077500     -40.51077449      37.57119405      34.47436039
H        9.03389000      10.60297900       7.88357000      -2.75945619      -1.96981278      25.76037554
C        8.52359000      10.48050700      10.06454400     -28.52255729     -87.86828522     -49.48819106
H        8.78698000      11.25559400      10.70138000       3.42566707      37.70640574      35.08856040
C        7.05076000       9.82763300      10.48247800      27.39180358      97.26223913     -34.14776668
C        9.62604400       9.43848800      10.05372800      33.82887564     -18.82511771      15.80933997
O        9.90478500       8.65234000       9.14236300     -18.95890737      11.89222993      -7.54023832
H        6.45181000      10.46655100       9.77017000      -4.61215265     -12.99786105      24.55603159
H        6.73260000       8.85499000      10.34863800       9.09076450     -60.26412462     -21.81494334
H        6.80396000      10.03323400      11.50374000      -1.69073869      16.01399430      18.91506133
N       10.41932400       9.45553700      11.17238000      15.23092780       1.45603205     -30.93041567
H       10.10783750       9.91816900      11.99189000       2.57866832      14.97567277      25.42726417
C       11.58631000       8.55086000      11.25468000     -62.17083467     -59.54623466     -27.44785540
H       11.00676100       7.55101000      10.94611000      41.53215012      32.07029410      -8.67454712
C       12.80658000       8.96300000      10.39353100     -57.12617050      34.01018493      60.75543723
C       11.76920000       8.26562000      12.70092000     -23.22844473      93.75597830      96.48497927
O       11.49738000       9.23353000      13.56236000      20.78468000     -80.01380117     -53.18358236
H       13.54819000       8.26302000      10.32293700      43.61993244     -49.31245141      -5.53860754
H       12.46836000       9.31005000       9.47312900     -13.95216409       8.45414376     -44.94668978
H       13.17165000       9.81691900      10.94151000      14.84377916      15.00043986       3.84359090
N       12.04937000       6.99052000      13.04881000      23.32786858      10.00197993     -24.37898841
H       12.57970000       6.60766000      12.25746000      -6.88047399     -21.02061907      14.61305421
C       12.12112000       6.48941000      14.42666000     -47.92348010      51.56388610     -14.52690267
H       11.12580000       6.02822000      14.57852000      10.06848370      -3.31969002      10.94694495
H       12.90269000       5.80639000      14.55191000      30.34548585     -24.57570305       6.36729762
H       12.18931000       7.40814000      15.06715000       2.82610216     -18.24635003      -3.89668015
42
Lattice="20.0 0.0 0.0 0.0 20.0 0.0 0.0 0.0 20.0" Properties=species:S:1:pos:R:3:dft_forces:R:3 dft_energy=-34.818884016014636 energy=-620707.8615369201 pbc="T T T"
H       12.30770500      12.89574500       7.96880500       7.56126072       3.49326107      -3.96498517
H       12.82696500      11.61139500       9.02897700      31.33439171     -39.78032323       1.83008613
H       12.45265500      13.16602500       9.72909200       4.22418634       6.67592631       4.21423210
C       12.21056500      12.44374500       8.95624800     -45.37673644      34.46251011      -6.25409189
O       10.32723590      11.13596500       8.26477500     -13.23012654     -24.01826589     -26.36805789
C       10.76105700      11.98417500       9.02446200      27.15278343       3.48368605      11.36528353
N       10.00272600      12.51436500       9.99420800       4.54199900      29.65402202      20.92522432
H       10.47319500      13.12274500      10.66756600      -7.31337656      -5.04167790      -4.80947166
C        8.62492500      12.14241500      10.23975500      -2.04692255     -21.28914642       8.83370823
H        8.28619500      12.67627500      11.12381500       2.71135590       3.62660042       9.33629045
C        7.70220500      12.48160500       9.12327700     -54.38366021     -27.01745324      -5.77384745
C        8.61561500      10.65874600      10.66783200      20.94999140      -4.10710557      43.88182362
O        9.20119500      10.34067700      11.73789500     -13.18106638       8.36435419     -28.23661004
H        6.61092500      12.12105500       9.31893300      38.05871456       9.90786500      -1.85928522
H        7.62185500      13.52817500       8.98722800       0.59598020      31.97158127      -4.45097700
H        8.01620500      12.04259500       8.18759500       4.62454805      -4.42389911     -11.56722415
N        7.99030500       9.74860800       9.90977160     -16.23832010      -1.39877149     -27.13951112
H        7.64173500      10.03186800       8.96394300       8.52408412      -7.03311744      25.94429188
C        8.06756500       8.32419500      10.19402400       5.72197877     -19.08665339      15.44174428
H        7.82672500       8.04569500      11.24811500      -0.12264210      19.46965443      -7.08707177
C        7.09572500       7.55623500       9.32684000      72.69198721     -32.95870959     -34.06588124
C        9.50553800       7.72062500      10.08858800     -37.74563017     -10.90312262      15.94455166
O        9.73349400       6.66478500      10.66466200       4.31691478     -10.81819166       5.90835997
H        7.13774500       6.47182500       9.54201400       7.41045406       6.93910917      -0.67636065
H        6.13644500       7.82164500       9.49780600     -77.52784945      28.22535227      11.64109880
H        7.35620500       7.69198500       8.24672500      -6.46156659      -2.20076289      10.55608717
N       10.36159440       8.40995500       9.37117800      22.34429534      35.03665617     -29.14991111
H       10.07091500       9.27669400       8.88647700       2.03459826      -7.60459719       7.68103150
C       11.76421500       8.10780500       9.26589300      17.71403546      10.82073947      -2.63613032
H       11.94983500       7.17023500       9.77634410      -3.86740996     -16.44866257       0.08183436
C       12.21589500       8.06296500       7.80161500       1.80533090     -34.45954754      13.50955614
C       12.65812500       9.08002200      10.08388800      30.80622474       4.31623931     -26.36035521
O       13.86355500       9.25241800       9.79926720     -20.19133648      -7.85115412       4.32251996
H       13.29272500       7.82441500       7.76826500      -5.20632569       8.84976536      -2.39265447
H       11.68456500       7.23190500       7.29307500       1.79087356       7.80602825       2.31393306
H       11.97161500       8.99349500       7.32714500       1.26187706      15.81313205     -11.26391624
N       12.07297500       9.72672300      11.08783500      21.11364377       7.93634578      16.32897474
H       11.10987700       9.61970800      11.27189500     -34.82015156      -6.11589393       5.98344335
C       12.79486500      10.58503300      11.99588500      12.68726521     -37.83083368       8.16486658
H       13.48679500      10.09141900      12.70692500      -5.22290423     -10.58644758      -7.22121694
H       13.40262500      11.26718500      11.48814500      22.68427987      30.02114369     -25.92307988
H       12.09718500      11.08612500      12.58805500     -31.72734700      24.10038833      22.99167613
42
Lattice="20.0 0.0 0.0 0.0 20.0 0.0 0.0 0.0 20.0" Properties=species:S:1:pos:R:3:dft_forces:R:3 dft_energy=7.035677602863871 energy=-620666.0069753012 pbc="T T T"
H        7.00335000      12.27336000       9.41967300      -6.32719627      11.82573801     -15.51545302
H        6.75920000      12.00419000       7.62349000      21.91081210      -5.70026906      13.60352886
H        7.01909000      13.64918000       8.07614000      10.81977960     -27.16570024      26.26578998
C        7.33332000      12.57953000       8.39786000     -35.61874192      35.57382936     -15.22061806
O        9.45631100      13.14704000       9.29223500      30.37997017      24.03106419      15.54602674
C        8.83032600      12.52585000       8.46690000     -23.82427680     -72.05302011     -43.67100714
N        9.37154200      11.53424000       7.61212000      27.79649064      45.71826151      34.49995699
H        8.78121400      10.80381900       7.26473000     -12.15317310      -3.42334442      -3.42349847
C       10.81894000      11.29034600       7.52236000      11.35793636     -47.05046998     -39.76408835
H       10.90177000      10.55908400       6.68149000      -9.04561494      -3.84171855      14.81841956
C       11.62546000      12.40788000       6.86139000      14.39583857      58.10630715      23.52185766
C       11.47940000      10.41277590       8.70746000     -16.79469074      61.46325445     -37.66623329
O       11.88145000       9.29931000       8.43181000       2.47886526     -13.06291909      18.51890647
H       12.48616000      12.15216000       6.19575000     -16.08237041     -10.96232661      11.21938289
H       10.94577000      13.07652000       6.29556000       0.76329312     -11.94366015      -3.75497450
H       12.05128000      13.15955000       7.58794000      -4.13221632     -15.49198947      -4.53537469
N       11.55315000      11.11264100       9.88208580     -25.60833645      34.80213913     -10.16332149
H       11.20615000      12.12664000       9.91622490       5.19771054     -39.84147068      -8.87677215
C       11.86069000      10.43277650      11.08113000       5.22804725     -44.69866342      -6.64778189
H       12.53680000       9.64505100      10.70852400       1.46278671      -4.53226992       7.34053741
C       12.57455000      11.27067800      12.07324000      46.79497794       0.16908216       8.33533286
C       10.81421000       9.59593500      11.74735000     -45.61066096      29.16709402     -32.39688781
O       11.14831000       8.68118000      12.46995000     -12.55383106     -14.47523545      13.63102151
H       12.41541000      11.02094800      13.17677000       6.02011996       6.10552493     -34.93498077
H       13.57932000      10.96319300      11.66862000       3.28788387      28.59152592      36.68147503
H       12.40563000      12.31964000      11.81740000       0.60533837       5.89665190      11.26498276
N        9.50891300      10.00091700      11.38692000      68.11256503       9.60455709       7.92275351
H        9.44248800      10.84778800      10.77951000      -4.78210937     -23.32976462      13.31746310
C        8.40055000       9.23701000      11.75889000     -46.16406904     -24.58210220      -9.37557413
H        8.75162700       8.24941000      12.18109000      -1.12671869      20.21290399      -7.33700602
C        7.51383000       9.92340000      12.82266000       9.22864251     -74.31903064      37.89885429
C        7.66833000       8.93855000      10.39137800       8.08634662       0.71871474      39.62295152
O        7.13243000       9.79140800       9.70993900      -8.57754073      34.98925505      -8.30756765
H        8.08672000       9.78242000      13.80425000     -14.27911332      14.48341214     -23.46130273
H        7.26756000      10.92246600      12.64252000      -5.13689490      40.58827532     -10.20403905
H        6.56514000       9.33828000      12.99416000      13.77547642      10.06716832      -7.30502212
N        7.64210000       7.66411000      10.00768200      29.18558045     -58.96213437     -19.24189205
H        8.22434000       6.90128000      10.37893200      -3.25931284      21.86578104      12.81299668
C        7.11288000       7.29926000       8.70835000      15.75494718     -16.89601064     -16.64822128
H        7.84899000       7.08462000       7.82536000     -16.29117235      20.24241119      34.55008368
H        6.60970000       6.35082000       8.85079000     -12.56271877      -8.16429777      -2.45261689
H        6.42068000       8.09679000       8.51633000     -12.71250631       6.27346710     -20.46827752
42
Lattice="20.0 0.0 0.0 0.0 20.0 0.0 0.0 0.0 20.0" Properties=species:S:1:pos:R:3:dft_forces:R:3 dft_energy=2.233072910923511 energy=-620670.8095799931 pbc="T T T"
H       11.16940600      11.13926000      14.34098000     -12.89251206       0.94045955       4.09275488
H        9.80313500      10.55328200      15.44251000      10.22025023      -1.85613305      21.26366831
H        9.43408900      10.78155000      13.88753000     -16.53706566      16.75072620     -31.79927820
C       10.27165300      10.50522000      14.47148000      28.11751472     -31.35785527       4.36993293
O        9.61229600       8.17871000      14.13113000      31.21695544      21.21875575       8.11940891
C       10.52859100       9.03285300      14.05712000     -47.14633874      -1.26609576     -13.59641869
N       11.65651500       8.79957700      13.34022000     -10.35047296     -70.71938961      -4.02257753
H       12.34383500       9.48070700      13.17722000      22.17329580      26.43240491      -0.92620010
C       11.89385500       7.42815000      12.68880000      65.89668118      29.44687913      -3.09984363
H       13.00074500       7.49968000      12.26517000     -41.48937061       7.74409869      10.95697029
C       12.07442500       6.23743000      13.66974000     -12.68951677      44.59497347      64.11285854
C       11.09808900       7.21163000      11.39919000      -2.98176744      50.50826316      24.29437741
O       10.93226200       6.06282000      11.07776000     -11.70693895     -20.31517191     -37.14245092
H       12.43352500       5.28485000      13.28260000      -7.62803705       1.67526222      -9.65255072
H       12.84481500       6.59402000      14.46446000     -16.26166515     -10.60097603     -30.09023082
H       11.16203800       6.17959000      14.34325000      13.32338824     -12.39705186     -24.11330513
N       10.80276000       8.41146000      10.68450300      -1.13573912     -51.86026160      25.42631615
H       10.58159800       9.29245600      11.11088000       7.98083173      11.45886519      26.51227580
C       10.24146160       8.43664000       9.37900800     -33.61166001     -13.03163435     -13.18616200
H       10.80969700       7.67167000       8.88606100      11.01463375      -3.64547792     -32.44239289
C        8.69547500       7.98212000       9.27209200      13.49545430      -7.41718502      10.56621916
C       10.39179400       9.92387200       8.95207400       4.14253791      -2.56605962      -9.18658587
O       10.36450600      10.77444000       9.85480119      -2.26048830       0.56540648     -18.23414425
H        8.19677500       8.26903000       8.32222000      12.79510276      -9.11047152       1.15565352
H        8.57779500       6.86182000       9.51245400       5.54015993      36.50739442      -9.22972088
H        8.16959500       8.57930000      10.01781200      -5.10706774      -2.38400377       9.60959346
N       10.54167500      10.20208500       7.60817000       0.15144421     -42.95856831       8.11710995
H       10.62032300       9.37935400       6.96244000      -5.44358014      24.86745695      16.30740723
C       10.70241800      11.51576000       7.07428000      -7.82296230      44.13565662      18.20487406
H       10.67290900      12.18838000       8.00810000       4.84172813     -14.71555913     -25.71238191
C       11.98720500      11.69332000       6.27842000       4.61654911     -15.47054046     -51.23385580
C        9.47210200      11.92460000       6.14921000      16.54773091     -17.98694741      43.77351206
O        8.92186500      11.03190000       5.52923000     -12.15423962       2.28634561     -20.27891005
H       11.88844500      12.57547000       5.57406000       5.09341622     -16.74302352      15.71027162
H       12.91817500      11.77082000       6.82078000       4.98016310       6.53781129      16.90513535
H       12.19074500      10.77481000       5.60503000     -14.34535638      26.10249312      15.61618040
N        9.04687500      13.21392000       6.26685000      15.53204341     -38.15505734     -16.83047859
H        9.53015600      13.79902000       6.91866000       2.18510867      10.18970021       6.80626753
C        7.82509500      13.62238000       5.61253000      19.50745683      20.48984503      12.39799988
H        7.85309500      13.36626000       4.55749000      -4.81835937      -9.70208489      -4.73866624
H        6.99925500      13.16035000       6.17067000      -9.12710931      10.26852827     -10.23858262
H        7.93052500      14.71515000       5.65835000     -23.86172369       1.53798858       1.43607617
42
Lattice="20.0 0.0 0.0 0.0 20.0 0.0 0.0 0.0 20.0" Properties=species:S:1:pos:R:3:dft_forces:R:3 dft_energy=16.93125560041517 energy=-620656.1113973036 pbc="T T T"
H        5.23479500      12.59075500       9.75939410     -19.29652184     -31.28699059      -8.16586200
H        5.66966500      14.23316500       9.33735300      13.73957007     -15.98010250       8.71898567
H        6.49110500      13.31499500      10.72610400     -12.12805050       4.21270342     -31.07961070
C        6.07094500      13.22445500       9.65307450      36.00186147      60.01064714      31.93306786
O        8.25999500      13.46902500       8.49659000      -1.83411523      16.50400338      28.09808026
C        7.25610500      12.82761500       8.79666800      -0.42727843     -46.60217389     -44.42468495
N        7.11371500      11.52639500       8.26587000     -28.85910524     -18.55030972      -4.65712447
H        6.09316500      11.34065500       7.97625000      46.65230057      -2.62734927      19.11023544
C        8.12585500      10.79172900       7.38954000     -46.69614661      36.13541413     -47.20736768
H        7.63339500       9.96575926       6.91517000     -17.70254069     -23.33687479      13.74194013
C        8.30868500      11.66446500       6.08077000      49.53452566       3.29783811      12.80481999
C        9.42633100      10.21817300       7.87619000       5.74441135     -21.89256267      -2.01147837
O        9.77421000       9.06933400       7.48456000      -3.60445225      46.75042089      25.45487532
H        8.56499500      12.67957500       6.50339000       1.30913598     -15.81668714     -26.58479951
H        9.12347500      11.18150500       5.42619000     -18.55042822      20.81240965      19.90183414
H        7.41599500      11.70076500       5.46155000      -9.81334717       0.09482784       3.63040436
N       10.07658900      11.09445500       8.70352000      39.72249387       8.22397578     -16.41666681
H        9.96317600      12.07840500       8.40072000     -14.88608466      -8.32835304      13.02677573
C       11.48995500      10.87971300       9.17706800     -38.83111581      37.07988144      53.42438005
H       12.02349500      10.31310400       8.51113000      34.78543024     -29.28891489     -52.02438798
C       12.13644500      12.25733500       9.54578500     -18.39732260     -43.78145175      65.77616383
C       11.32558500       9.98407460      10.41975300     -17.02363815     -27.55095284      45.59288554
O       11.22964500      10.38827000      11.60896000      12.96930187      -3.54112435     -39.84632929
H       11.37956500      12.70698500      10.23690100       9.41348318       4.69512831     -13.64192376
H       13.01201500      12.11209500      10.25508500     -14.40543730      -0.57072252     -23.83352002
H       12.38310500      12.88720500       8.73916000       5.85079131      17.01439493     -28.21800510
N       11.14480300       8.63135500      10.11879700      15.14833135      10.96148524      13.74063660
H       11.18269500       8.39222500       9.13746700      -2.27026478      -9.75318330      -7.16963267
C       10.91683800       7.63024500      11.19947000     -32.97055987      16.50542541      12.46566498
H       10.44145800       8.33366500      11.95404000       7.46953955     -25.94642493      -5.28535521
C       10.04409300       6.36349500      10.89288000     108.54714222      -6.52375686      16.38324902
C       12.22013500       7.01357500      11.79177000      31.92109907      59.83265593      21.18344192
O       12.85749500       6.14083500      11.27298000       8.87945031     -41.44753912     -17.63819367
H       10.02098600       5.84189500      11.87820000      -1.09434017      -0.71740291     -13.23545916
H        9.08778500       6.50417500      10.57981800     -64.20849030      15.13778460     -30.28931553
H       10.73667500       5.76683500      10.18768200     -32.97447046       9.04580454      18.54829517
N       12.67937500       7.74600500      12.90839000       4.26279455      -1.46409024     -25.96313383
H       12.30814500       8.66380500      12.73441000      -9.57675633      21.05474788      16.25893959
C       14.05937500       7.80852500      13.47612000     -36.52659187      11.69672401      20.97523250
H       14.76520500       7.09633500      13.13238000       5.29011902     -33.01085082      -9.72116384
H       14.57275500       8.74940500      13.27967000      -8.31090943      13.55399469      -5.04324214
H       13.89156500       7.75610500      14.57381000      13.14634506      -4.60230507      -8.31266327
42
Lattice="20.0 0.0 0.0 0.0 20.0 0.0 0.0 0.0 20.0" Properties=species:S:1:pos:R:3:dft_forces:R:3 dft_energy=-1.5094558891141787 energy=-620674.5521087932 pbc="T T T"
H       12.92208500      10.36965500       9.99748700       8.36183008      34.66977151     -11.69316893
H       13.04128500      12.29564500       9.85204300       5.26685692     -26.58207395      -0.95794345
H       14.01916500      11.18590500       8.81554700      10.70846992      -1.96302257      -4.77350606
C       13.07031500      11.29312500       9.32527900     -16.87349510       3.26354339      32.01080569
O       11.67347500      10.07966370       7.83580500      -7.46280859      52.33640585      25.78146904
C       11.96327500      11.22303500       8.32948500      -8.28220805     -21.25596563     -40.90977341
N       11.40781500      12.43687500       7.90739500     -24.90916993     -74.91000410       3.23676176
H       11.76634500      13.28477500       8.23369500      14.77326999      31.51534549      22.66721547
C       10.19850100      12.52825500       7.03121500      73.47943831       7.60879219     -31.33474722
H       10.23822400      13.59530500       6.74827500      -8.54988217      -4.79298793      -4.12676519
C       10.57144000      11.68750500       5.74028500     -37.79397931     -50.33323453      55.92964773
C        8.91444700      12.34616500       7.76899500     -35.34049735     -25.02956878      39.90273663
O        8.29643500      13.30354500       8.25814500       8.91807037     -17.77731595     -12.25686304
H       10.48824900      10.53142200       5.94000500       0.81051649      46.44409115      -6.37614977
H        9.77949050      11.94485500       5.07981500      -3.38103892       6.16193226     -36.96422271
H       11.61776500      11.81410500       5.51410500       4.70494035      13.47293877     -14.95090569
N        8.57646500      10.99623000       7.95526500      63.61348775       4.45780276     -31.70329093
H        9.29946500      10.38330400       7.46522500     -31.59343883      12.78372649      19.51444849
C        7.53028500      10.43567600       8.76090600      -7.63860750      30.76036415      12.92415231
H        7.08804500      11.39037500       9.17621200      -0.98585323     -23.69167217       5.59058287
C        6.53425500       9.70401100       7.86646500      36.37064219      -2.39343659     -56.25031631
C        7.97507500       9.41308700       9.94301300       5.72008273       6.63099004     -32.88476384
O        7.11913500       8.86866500      10.65087500      14.44857232       7.61363896      -5.95137649
H        5.98083500      10.31991000       7.06465500      12.46590198     -13.44639415      36.65256035
H        7.14970500       8.96058500       7.24693500     -12.72151252      16.29425342      12.10399443
H        5.98295500       9.08381500       8.50252900     -41.32796979     -18.14277859      17.78964025
N        9.30761500       9.07190500       9.91857100     -12.45428871      10.52874857     -11.15735852
H        9.95803900       9.46151900       9.25173600      -3.24611163      18.53869644      -9.57583201
C        9.85475800       7.86741500      10.47270500     -25.77720294     -23.44305330      50.64146031
H        8.97342700       7.19004500      10.52897500       9.87384285      -5.96726772      -1.72766416
C       11.00770500       7.32585500       9.62623700      -0.00524141      12.00741465      20.69840996
C       10.19820800       8.17785500      12.02878500      21.87798683      23.16255717       4.09251788
O       11.34451500       8.42203500      12.45529500     -22.98717303     -14.88561064     -16.79208368
H       10.62516300       7.19941500       8.57428200      13.62248931      -7.47065348      19.61505737
H       11.71683500       8.19528500       9.64740800       3.21682959     -22.57134670      -7.19229040
H       11.45739500       6.40469500      10.15157600     -12.58938190      28.22179719     -25.31207945
N        9.06518500       8.37643500      12.77957500      49.26315425      -9.44620180      21.21662270
H        8.23317500       8.18782500      12.27534500     -35.05798668       0.11626393      -3.38656115
C        9.10314700       8.78389500      14.21672500     -22.60263144      35.24628763     -44.71691285
H        8.97687800       7.99228500      14.92018500      -6.55639253     -20.62529373      10.60340533
H       10.02428700       9.30207400      14.43155500      16.91520809      -0.56301865      -3.79515880
H        8.32507500       9.58094300      14.33229500       3.72524215     -16.54464984       3.81805354
42
Lattice="20.0 0.0 0.0 0.0 20.0 0.0 0.0 0.0 20.0" Properties=species:S:1:pos:R:3:dft_forces:R:3 dft_energy=1.7629522981587797 energy=-620671.2797006059 pbc="T T T"
H       12.43527000      10.43700000       9.32246000       1.91536075       6.85263768      -8.82612405
H       13.66318000       9.30343700       9.74861900      10.55474809     -12.96491727      -5.21515415
H       13.58800000      10.84062000      10.57442600       2.41025214      12.59471453      20.82745951
C       13.00420000      10.04337400      10.17076800     -34.81126385     -26.84432065     -18.91103224
O       11.46096000      10.15232800      11.95144000     -24.63139937     -29.71433994      -1.97532316
C       11.87692000       9.42644200      11.03117700      49.37727244       8.59651303     -18.69749019
N       11.46019000       8.15384000      10.60626300      21.94221534      65.25652906      13.77215834
H       12.06760000       7.63623000       9.98628300       5.93480980      11.03549024      -6.62937841
C       10.58645000       7.31255000      11.35103600       5.94017798      -6.21695311       7.33599875
H       10.48630000       6.51306000      10.64715900      -1.81066352     -34.86304957       2.15109837
C       11.18977000       6.95221000      12.74875000     -47.23130525     -11.82804881     -47.03399809
C        9.16748000       7.85218000      11.33644600      -1.23158774      41.51674475      39.68445447
O        8.31111500       7.50275000      10.55583800     -12.05457877     -18.19385329     -16.80002337
H       11.40420000       7.86539000      13.25454000       3.07056159      13.25465662      18.39222698
H       10.33825000       6.38779000      13.13340000       8.37386997      -4.26259310      24.71920994
H       12.05344000       6.33661000      12.59184000      14.96797009     -10.08970755       2.93358420
N        8.95192100       8.82841000      12.31551000     -28.84393688       2.82485788     -30.13964649
H        9.82757900       9.40056500      12.46827000     -20.67044330      -5.59481342       7.77553748
C        7.58485000       9.56292600      12.20369000      43.10942238      -0.22457821      38.55630782
H        6.72401000       8.85090900      12.19878000      19.25765292       6.65381368      -5.66281032
C        7.55169000      10.42933200      13.48731000     -33.70302567     -25.67007641      23.89715602
C        7.48389000      10.52026800      11.03531500     -52.04346693       1.03334560     -19.00998207
O        6.33682000      10.88775000      10.66977300      31.55397740      -7.37828055       2.54756133
H        6.55819000      10.87901000      13.70455000       9.54758094       3.35200573     -15.00423195
H        7.69041000       9.79718020      14.39330000       6.03777688      -0.01957109     -11.28414467
H        8.32725900      11.16494000      13.48280000      12.81536674      17.55287165      -1.29251003
N        8.62518400      10.97763000      10.49923700      90.90539346     -37.20182082       3.57807353
H        9.56763200      10.47819300      10.76619900     -55.58136800      24.30160608      -2.51517452
C        8.82251400      11.67746000       9.23878000     -78.04677320      42.82288261       3.54739315
H        7.84449000      12.25892000       9.12380000      17.95435914      -9.89258999       3.37495973
C        9.93435700      12.69172000       9.27702000      27.13725957     -24.61741604      70.12201700
C        8.81432900      10.80189000       8.03719000       4.59467349     -62.39516047     -89.80331743
O        9.83075700      10.64674800       7.30546000     -28.32133954      11.15726372      31.15651901
H       10.08560600      12.90586000      10.40486370       9.38379822     -13.76469266     -31.54734125
H       10.84768000      12.35539000       8.77761000       1.45850875      -1.04490673       4.01652203
H        9.70164100      13.66339000       8.98632000     -19.33645729      37.66066366     -31.42883845
N        7.57107000      10.18220400       7.62845000      17.54125838      14.56186100      35.00892652
H        6.90018000      10.14072100       8.44622000       9.85976472      -2.26552467     -33.05066776
C        7.49786000       9.21221400       6.45410000      27.70500648       7.32942184      47.28463151
H        6.92321000       9.57571400       5.60670000      -9.47019862       6.04597727       1.54929375
H        8.55195100       9.12574100       6.14148000      -4.19433548      -1.79268665      -2.26378268
H        7.16462000       8.21328000       6.81412000      -1.36659798      12.43592077      -5.14024853
42
Lattice="20.0 0.0 0.0 0.0 20.0 0.0 0.0 0.0 20.0" Properties=species:S:1:pos:R:3:dft_forces:R:3 dft_energy=2.728543164790608 energy=-620670.3141097393 pbc="T T T"
H       13.97287500      10.32644100       8.23610800      -7.89726356      -4.58071386      11.45563007
H       12.76109500       9.30051700       9.21362370      10.95467133      -0.12870234       3.71195799
H       13.14143500      10.99105500       9.73862500      14.93395979      -3.96753298      13.81955946
C       13.08618500      10.29980200       8.90287400     -32.72810314      29.57699520     -15.20331665
O       11.66847500      10.15572200       6.99611500     -13.28641537      27.70891707      35.56375663
C       11.88434500      10.79422100       8.06657500       2.57796915     -25.57645919     -38.05598900
N       11.08021500      11.84365500       8.51527000      29.88581349     -13.71930609       0.23876537
H       11.45852500      12.48840500       9.21527300       2.81370677     -18.39755961       0.85178627
C       10.06609100      12.51882500       7.73799500     -33.90211037     -22.48697271     -15.74961455
H        9.93470100      13.44154500       8.25163300     -14.84306814      20.39338375      14.81960458
C       10.48622500      12.89387500       6.34070500      17.37902805      35.59172329     -29.23914372
C        8.62477900      11.83275500       7.75051500      -3.33815276     -40.85158854      13.06694818
O        7.56972500      12.46211500       7.84237500      26.62449795      -1.67116203      -4.00445845
H       11.01854500      12.09124500       5.82742500      -8.37600302      -6.38785785      -3.55605570
H        9.64766200      13.31862500       5.70088500      16.87112505     -13.93035958      17.61816670
H       11.26385500      13.71820500       6.41921500     -16.23772758     -13.09135976      -1.45271397
N        8.62079100      10.38789800       7.77603500      46.06843728      26.13567390     -21.87727581
H        9.45821440       9.87892010       7.34561500     -25.29560756      23.44779341      17.51696530
C        7.37099500       9.68004200       7.91458500       3.40958624      10.83261345     -57.60480330
H        6.63798500      10.45317200       7.66824500     -12.37880243      -0.86982358      20.42253544
C        7.13727500       8.57693500       6.83780500       9.73793199      16.27233040     -13.76078207
C        7.16452500       9.01567700       9.19417640     -12.04735010      -5.20427559     105.83935325
O        6.02712500       8.77897500       9.65933900      32.41063414      -3.61202458     -18.79584752
H        6.67362500       9.08582900       5.91662500       0.17457951     -27.92482917      28.98021510
H        8.12926500       8.24404500       6.48607500      -3.49137688      -8.13330928       3.79687709
H        6.61796500       7.75747500       7.40706500      -1.97524021      10.81106964     -32.39973188
N        8.35978500       8.74067500       9.92212100     -20.03360926      19.27886493     -15.53725754
H        9.14377900       9.32078600       9.58711600      -1.14200200      -7.59695376       4.12387372
C        8.51268800       8.36058500      11.32164500      -1.07539276     -12.41885637       2.49806271
H        7.96609500       8.97275700      12.09056500      -3.71579748      -0.05645971     -19.75299463
C        8.15395500       6.84271500      11.57841500      17.05480439      40.92695632       4.95608333
C       10.02581600       8.56796500      11.65945500     -30.79105638      -3.68530671     -20.86952800
O       10.75950500       9.20672700      10.92923500      23.33770431      16.40185396     -14.53590888
H        9.03230000       6.28179500      11.18311500     -22.22662206      -7.68133961      10.66631847
H        7.91272500       6.77136500      12.65417500      14.03002043     -13.12513306      -0.67998210
H        7.19943500       6.66147500      11.13926500     -14.97993887     -10.81621266     -21.68103517
N       10.40579900       7.90270500      12.74540500     -84.55577647      -1.56583674       0.48979814
H        9.57538900       7.56461500      13.24878500      21.49913338      -6.17800124       3.55131559
C       11.68615500       7.83670500      13.23120500      49.54068780      11.46484958      -8.48881768
H       11.62073500       7.72991500      14.29911500      12.84060783      13.52519851      19.09968869
H       12.14449500       6.91431500      12.88149500      14.78464626      -6.97123528      -5.28943170
H       12.22693500       8.72895500      12.76641500      -2.61233496     -21.73898304      25.44764665
42
Lattice="20.0 0.0 0.0 0.0 20.0 0.0 0.0 0.0 20.0" Properties=species:S:1:pos:R:3:dft_forces:R:3 dft_energy=23.247925207251683 energy=-620649.7947276968 pbc="T T T"
H       12.75592500      11.56568000      12.29592500       2.23365927     -42.96852255     -34.20749209
H       12.85762500      10.33753400      10.76910300      -1.78018460      20.35024874     -13.15357373
H       13.79949500      10.04045800      12.18283500     -23.34386645       0.53805604       3.70693347
C       12.81290500      10.47747600      11.84504500      17.46103198      10.75406979      41.85352971
O       10.48843500      10.56626900      12.21036500      20.74829964     -48.56884635      11.93275789
C       11.50520500       9.79964780      12.25255500     -16.71636039      -6.76936576      -7.20423549
N       11.49964500       8.39976000      12.46483500      25.07851043      46.15553684       6.27847977
H       12.32582500       7.88952000      12.16314500       5.47007737       9.48608984       3.27516852
C       10.41230600       7.50473000      12.91029500       0.91450506      75.02791439      -1.04019743
H       10.83333500       6.57123000      13.24146500       8.86346428      -8.77658988       7.20571677
C        9.56620060       8.13665000      14.08615500     -17.12507655     -53.39155477      -8.19039208
C        9.72481300       7.21054000      11.60098500     -50.17835137     -32.73296175      14.79614103
O        9.69070100       6.05778000      11.18003200      11.12209209      -8.27155465     -15.79286808
H       10.11513300       8.11168000      15.02748500      12.34218506       5.76442647       0.04405045
H        8.97000500       9.08487900      14.04549500      14.38232925     -18.78861884     -15.62080201
H        8.92042000       7.21598000      14.18795500     -10.90078811      25.72660224       8.95392932
N        8.97090100       8.21510000      11.12287700       7.46205018      85.51244957       7.67270075
H        9.18798000       9.20087700      11.59425500     -15.27098175     -54.40309467     -18.66075432
C        8.23443500       8.22504000       9.85896200     -54.46945624      -9.39612252       9.10631207
H        8.77505000       7.67684000       9.12437500      18.63835730     -15.25972398     -18.51416636
C        6.82775500       7.51941000       9.99093300      65.50692547     -45.39060127      50.10902723
C        7.89712500       9.56840000       9.25091900      39.13223142      33.09143272      36.58181417
O        6.90840500       9.78006220       8.54670500      18.79632153       1.24439790      -3.99389985
H        7.18203500       6.45127000      10.09591500     -22.42061114      11.19673700      -9.05310431
H        6.45069500       7.73981000      11.00586500     -10.01193416       8.05531074     -11.96427963
H        6.20050500       7.71112000       9.15797500     -16.53505111       3.01716422     -14.05312848
N        8.82228800      10.54184600       9.66897900      -4.49142200     -40.77740579       8.07607243
H        9.48400420      10.31560400      10.48339700     -21.65283151      18.01041096     -39.41367557
C        8.60366800      11.88488000       9.28205100     -34.32717991      40.27045081     -17.85552780
H        7.50834500      11.90320000       8.91381500      27.19200786       2.96278329      13.18011835
C        8.86117300      12.84911000      10.40221000       6.64028066      25.67730508      34.50197154
C        9.41456740      12.29478000       8.02586500      85.86689144      12.88066178      -5.42368352
O       10.49682500      13.04619000       7.94896500     -94.69072839     -46.64601992      23.56665172
H        8.39936500      12.54743000      11.42802500       7.64063390      15.42859047     -41.20697844
H        9.94070100      12.85285000      10.56862300       8.25394513      -5.80285693       5.52064251
H        8.73907000      13.94222000      10.10172800     -13.77654294     -28.49968625       9.28068894
N        9.07132500      11.56654000       6.92729500     -46.22640151       0.63369727       5.83872773
H        8.12533500      11.10111000       6.82259500      29.19304613      15.40714146      18.33048702
C        9.61946000      12.05592000       5.71079500     -36.18459279      40.59337094     -10.23831006
H        9.22325100      13.13804000       5.50865500       1.17162059     -40.19022442      -8.69158782
H       10.60276500      12.29905000       5.94022500      54.71250548      -1.63106068      -2.73308931
H        9.46379837      11.29342000       4.97251500       1.27966433       0.47971711     -22.80029411
42
Lattice="20.0 0.0 0.0 0.0 20.0 0.0 0.0 0.0 20.0" Properties=species:S:1:pos:R:3:dft_forces:R:3 dft_energy=12.001902704127133 energy=-620661.0407501999 pbc="T T T"
H        8.00044500      12.43206000       7.26787000     -14.03511605       2.31693118     -14.70987099
H        7.49242500      13.83610000       8.09122000       0.36158996       7.10833117      -0.37964860
H        6.42177500      13.39009000       6.79449000       6.79505717     -26.42470223      10.75031326
C        7.07375500      12.95275000       7.59620000      18.14123805      22.68795346      -0.09755376
O        5.85480500      11.06149000       8.53624000       9.20321181      11.91261241       1.18961405
C        6.53634500      12.07457000       8.69458000       2.80788828       4.51500406       4.11012739
N        7.00882500      12.49636000       9.93999300      15.48381278      -1.52018946      41.24335879
H        7.71109500      13.28542000      10.14370800     -34.16814916     -35.37628520     -24.07692477
C        6.79048500      11.63772000      11.13995900     -25.79166028     -21.02701822      -4.93061708
H        6.99707500      12.15962000      12.07289000      -0.74765905      22.59812834      -5.16650875
C        5.29611500      11.10698000      11.30719900     -11.00152734     -31.07072299      -2.98664975
C        7.91661500      10.54723500      11.38232600      34.11980001      -0.62398360      17.09758390
O        8.91463900      10.91770000      12.08370000     -41.85755880     -13.53230867     -31.47837262
H        5.27881500      10.56188900      12.31397000      -6.96504944      29.33240542     -14.91760640
H        4.39947500      11.86707000      11.12483900      48.04067937     -29.20477791      14.60641805
H        5.07191500      10.20596600      10.64609370       6.88149311      29.30337224       4.53977114
N        7.81660500       9.23406700      10.94917100      62.25153507      67.66225439      58.82313058
H        7.02560500       9.05672100      10.44188100     -57.09690030     -27.70382145     -38.08964379
C        8.60662600       8.19200000      11.64486000      24.28371216      30.85611442     -10.42049626
H        8.68942200       8.48337000      12.76035000      -4.91516431      -7.81407459     -32.43457170
C        7.88549500       6.89999000      11.44558300      69.29510446     -33.51650226     -57.42894515
C       10.11469200       8.08256000      11.09065400     -14.80372521     -42.61396217     -19.93537043
O       10.53262000       6.93267000      10.78510000      -5.12750948      22.91749338      19.80312131
H        6.98763500       6.99705000      11.88720000     -79.48812275      -0.79192340      39.42137825
H        7.73505500       6.51605000      10.35340100      10.81953074      22.74649384      36.29681494
H        8.51725500       6.16390000      11.93996000      -5.60844124     -12.13978228       2.09613677
N       10.86053500       9.16546000      10.82941100     -21.45042872      51.86571273      12.34621416
H       10.40805900      10.13316100      10.84501600      15.60444862     -37.69100038      13.56951855
C       12.11373500       9.03423900      10.07616900     -25.68299321     -47.53739798      10.90378623
H       11.85345500       8.15821000       9.46238000      15.48203523      -5.75340571      -2.48841658
C       12.30843500      10.21892100       9.21709000      58.84683114      19.06698192      -7.92495766
C       13.34274500       8.71085500      11.01681800       8.31201151      29.11424177      -6.44734626
O       14.04159500       9.67134360      11.38168200      -7.39739505     -18.46238064      -4.05560426
H       12.97826500      10.94191000       9.74106200      -6.36427579      -5.67525312      -8.26318835
H       12.78059500       9.93305700       8.25951000       5.26048147       0.48227203       7.06766101
H       11.44349500      10.73775000       8.90942000     -36.34267553      11.28393136      -1.68975512
N       13.68038500       7.40911000      11.31674500     -34.25015309      13.80533912     -22.83134185
H       12.92482500       6.72265000      11.37069700      -0.45818870       4.19140846     -10.20815110
C       14.81313500       7.20250000      12.13664000      10.29647123      19.96167806      37.39059578
H       15.18545500       6.20698000      12.08612000       8.79873805     -24.97505749     -11.82143636
H       15.60052500       7.93737000      11.87526000      -7.19592844      -7.41646215       5.40057548
H       14.51760500       7.32066000      13.20551000       9.66305007       7.14245998      -3.87347730
42
Lattice="20.0 0.0 0.0 0.0 20.0 0.0 0.0 0.0 20.0" Properties=species:S:1:pos:R:3:dft_forces:R:3 dft_energy=16.451916936435737 energy=-620656.5907359676 pbc="T T T"
H        7.07450500      14.89472500       6.74685500       5.76273188       6.23348425     -12.76654358
H        7.49452500      14.97224500       8.45917500     -12.74035447      -7.99062006      -6.49520954
H        6.57243500      13.58362500       7.72606500       1.97336787     -11.19934406       6.24478942
C        7.39108500      14.28825500       7.58792500      -6.63176031      15.95130632      27.51954960
O        9.72484520      14.32534500       8.02296500      16.24306021      13.23083755      31.59047626
C        8.79157500      13.78248500       7.46093500      28.46259487       4.97496082     -31.14253568
N        9.06526400      12.92147500       6.44054500      24.12894750     -35.20433763     -16.36736965
H        8.32025500      12.32438500       6.20117500     -36.46994753     -13.91222865     -12.20851390
C       10.31531400      12.07092500       6.09228500      -7.75849678      31.03931974       5.34947707
H       10.06403000      11.79676500       5.07583500      -3.30416615     -19.37236363      -5.48459396
C       11.60451500      12.99385500       5.89099500     -48.93324245      -7.81694236      48.73818685
C       10.36640600      10.86243500       7.08812500      44.93507650       7.56152143      17.28387030
O        9.92666100       9.71651500       6.95663500       0.14421672      26.35525959       0.15170491
H       11.77922500      13.62551500       6.78089500      -1.40220807      -1.07973707      -8.12627022
H       12.51163500      12.52935500       5.61872500      21.77702244     -26.25796879      -8.34316589
H       11.25476500      13.59484500       5.10418500      -2.28111964      31.50325820     -28.26682825
N       11.18557500      11.33577900       8.12726500     -20.19595809     -48.10490789       3.61889774
H       11.25800500      12.32845500       8.03164500       8.54385038      18.47802301      18.36556385
C       11.46745500      10.68180400       9.43925590     -39.64700758      13.02807926     -14.67266111
H       11.74663500       9.65225100       9.30202500      21.35764103     -11.30716976     -17.07755692
C       12.47972500      11.51807500      10.23026700       8.44045669     -65.82605351      15.29314177
C       10.11214500      10.47834250      10.25967700      27.74802299       9.66582304     -12.72874119
O        9.28442400      11.37025500      10.33918600      -9.09793392      -4.89386936       8.87427174
H       13.42756500      11.61039500       9.59658300     -25.97131052      10.11069440      24.12515541
H       11.89008500      12.37792500      10.51963500      13.90784405      21.36664725       3.38048196
H       12.67736500      10.84307400      11.18484500       0.20466974      35.87411546     -36.02070342
N       10.10153000       9.25121500      10.87969500     -10.66669768     -10.71982249     -21.80724065
H       10.71747600       8.53240500      10.42825800     -17.13503078      17.36350418      19.84341226
C        8.93477600       8.77619500      11.60814500      -7.86798152     -31.88294117       6.96707583
H        8.54378500       9.61290300      12.23768500       2.71895193      -4.91902750     -15.81763516
C        7.72881500       8.12774500      10.80451500      -2.92539566      31.79050899     -21.77642993
C        9.43006500       7.70659500      12.63590500     -46.78265365      18.81942957     -16.31807248
O       10.60269200       7.65894500      12.93266500      13.96318485     -21.51240569      15.25379884
H        6.83586500       8.25304500      11.41832500      -7.36947579       2.49591781       0.87459569
H        7.53227500       8.67120500       9.86769200       0.62515915      13.39069783       5.63211810
H        7.68209500       7.10641500      10.40183000      23.22323060      -7.46575931      16.29223887
N        8.38596500       6.92017500      13.12344500      88.42524838     -15.63514085      22.56032594
H        7.45222500       7.05518500      12.84192500     -23.33355671       1.89745497     -10.22925645
C        8.76800000       5.75297500      13.99777500      -6.03430475      75.92794315      27.19129684
H        7.79366500       5.46366500      14.34932500      -7.17577111     -24.44179489       8.63937549
H        9.32802200       5.02775500      13.42915500       5.89711406     -10.80142351       0.94012418
H        9.33589900       6.20923500      14.92416500     -14.75810163     -26.71491559     -39.08056420
42
Lattice="20.0 0.0 0.0 0.0 20.0 0.0 0.0 0.0 20.0" Properties=species:S:1:pos:R:3:dft_forces:R:3 dft_energy=1.4979333252413198 energy=-620671.5447195788 pbc="T T T"
H        6.02287000       9.65798000       9.79308500      24.77135118      14.04044868      17.04686470
H        7.31541000      10.92809000      10.13316100      17.90778754      -2.96989346     -15.01785977
H        6.13521000      10.66794000      11.28490500      -1.63769684     -11.68041803       3.64263385
C        6.75031000      10.10805200      10.55343700     -42.95110264     -21.94197834       4.26054300
O        8.19752000       8.17188000      10.41792600     -14.23455626      -5.33395320      13.53681178
C        7.61588000       8.98082000      11.17342800      20.38769562      31.97383282     -58.54464900
N        7.92043000       9.17935700      12.44691500      -8.53837555      12.86655995      43.70489894
H        7.45046000       9.92001200      12.95190500      -5.41268646       4.15887945      -8.13418620
C        8.76653000       8.38337000      13.34957500     -33.30307872     -33.58132329     -57.64722730
H        8.61813000       8.76543700      14.29188500      -7.18769250      26.96851158      54.88386053
C        8.21937000       6.95431000      13.34727500      37.82218298     -21.15357921     -57.51580770
C       10.18388200       8.71385800      12.99642500      38.18160197     -38.26929404     -47.91565891
O       10.84360700       9.48602930      13.66257500       5.14911254      11.96380562      11.35618252
H        8.46786000       6.41783000      12.37624500       7.64792182      11.64017448      20.12141983
H        8.60039000       6.36090000      14.13657500      12.83397168     -15.00257291      24.11271262
H        7.16879000       6.81485000      13.28272500     -32.63804101      16.57664559      12.86999653
N       10.70104500       8.08570000      11.82287500     -53.57120502     -15.83825465       2.68675472
H       10.01779800       7.47607000      11.22676400      31.25167676      34.16933418      31.65304574
C       12.01887000       8.37299000      11.35314500      38.46079456      17.48627308       8.96390726
H       12.42036000       9.18411500      12.11562500      -8.96191641     -36.68846669     -29.46311401
C       12.95908000       7.06433000      11.31337500     -49.78800315      20.01630785      27.02859250
C       12.14655000       9.03873400       9.96691700      19.50781233      29.25727465     -34.79159238
O       13.24988000       9.48113260       9.53099400     -20.22570229     -24.49642468      27.01129109
H       12.91182000       6.70822000      12.33681500       5.48715362      -2.98719487      14.41953913
H       12.42716000       6.23253000      10.78063700      21.37636448      17.57858676     -10.36456294
H       13.97713000       7.37952000      11.12918500       6.39283497      -8.81613426     -18.44567174
N       11.05146400       9.18312200       9.16282500     -65.32016506     -41.03455686      31.99326728
H       10.11160600       8.83936000       9.52542200      29.54997656      12.25472999      -9.91339908
C       11.12992200       9.50328400       7.74815500      -4.59707910      40.26073358      -7.41963802
H       12.15694000       9.21137100       7.56113500       9.71686219      -1.96692131     -19.61067276
C       10.11829100       8.93867800       6.72574500     -17.22710746      47.46238571      15.16077414
C       11.09793500      11.05748000       7.59196500      81.25677703      24.41619829       5.13630239
O       10.30055600      11.79146000       7.07744500     -69.81722780       5.47578920     -22.16298606
H       10.36086530       7.93073000       6.62669500      -8.96484343     -52.09098655      -1.67193230
H        9.03662000       9.21854600       6.99973500      32.30966975     -17.67007092      -6.15977551
H       10.29668300       9.37311780       5.70811500       1.44234497       2.02933674      19.32555503
N       12.30941000      11.64173000       7.91765500      21.12099094      -0.78009563      23.21303936
H       12.97702000      11.08313000       8.44311500      -0.06845824      -8.40187218       2.08768752
C       12.65934000      13.06543000       7.84102500     -15.46366730      13.23534066       6.03104592
H       12.55190000      13.42879000       6.79825500      -5.83562296       1.39381808      10.54588408
H       12.13937000      13.76747000       8.58216500      -2.82902918     -21.29246449     -22.53425533
H       13.70256000      13.23315000       8.12781500       5.99818510     -13.22834899      -3.47943179
42
Lattice="20.0 0.0 0.0 0.0 20.0 0.0 0.0 0.0 20.0" Properties=species:S:1:pos:R:3:dft_forces:R:3 dft_energy=2.7861559849698097 energy=-620670.2564969191 pbc="T T T"
H       15.02230500       9.00319000      12.93606000     -33.65455802      21.92906153       5.24161582
H       13.12327500       9.32174000      13.39382000      52.09193457      15.73883080     -19.80584687
H       14.40777500      10.72025900      13.45983000      -2.45272354     -28.36471156       1.06682856
C       14.14611500       9.75082100      12.93340000     -17.53580725      -1.62635612       3.35874854
O       14.33076500       9.52788100      10.50361700     -10.49355324      18.00804091       4.37524186
C       13.92222500      10.20456300      11.45505000      10.72660085     -23.43546912      19.29841789
N       13.29555500      11.41892000      11.39908000      -5.23196970       3.97106436      -2.31899313
H       12.77606500      11.73826000      12.20780000       6.78340834      -6.60326039       8.26786921
C       13.07808500      12.29506000      10.26743310       9.35765651      14.76959640      -5.17331081
H       12.76098500      13.27911000      10.69126600      17.98481436      -5.04680907      -1.02986280
C       14.36122500      12.49067000       9.41157600      28.23767656     -23.80507935      17.33162693
C       11.84444500      12.01443000       9.47228700     -21.62296880     -38.33612962     -32.22209618
O       11.26793500      12.89636000       8.84202000       1.69472038      -0.66953608       3.44928468
H       14.89784500      11.61836000       8.87550000     -29.59311158      16.83972181      27.24201604
H       14.24031500      13.22408000       8.66188000     -14.64327242      24.35682838     -22.61282268
H       15.08160500      12.93937000      10.12306200       2.49078664      -6.37241694      -5.35629098
N       11.48057200      10.67022700       9.42072100      -9.10730749       5.20554357       7.29331404
H       12.08544500      10.01993100       9.94062600      -2.66755727       4.64292783     -14.55285478
C       10.56322740      10.14141600       8.40422000      -3.43417558     -11.82820287     -12.02732312
H        9.88049900      10.96894600       8.07832000      16.51715719      -4.99908799       3.89670385
C       11.38411600       9.58485900       7.18516000     -21.16163740      23.69309420      14.82304117
C        9.43691500       9.07779000       8.85602000      39.15024385      36.36210998      38.43105036
O        8.64847500       8.65235000       8.04045000     -10.41141895      -8.13264567      -0.61819237
H       12.15916500       8.90933000       7.59471000       0.17395974       8.40219214     -12.47016808
H       10.63811410       9.04259000       6.61759000      -0.49251541     -12.01902793     -11.29867311
H       11.72144500      10.44352400       6.54017000       5.86913555     -18.85900951      15.81455409
N        9.42411500       8.87224000      10.24307370      -4.90015001      11.63481815     -15.67329875
H       10.17991300       9.35795800      10.79488700     -29.07513584      -7.62279922     -17.44598213
C        8.16499500       8.61850000      11.00140000      36.17428305     -39.91470541     -24.03461927
H        7.38775500       8.14226000      10.32400200      28.79167715       0.02906731       7.49735216
C        8.50623500       7.68339000      12.16578000     -38.54208748      13.43300333       7.76234812
C        7.58633500       9.92232800      11.43829000      50.96805402      67.58333153      42.76742330
O        8.27705500      10.74447700      12.12083000     -30.99417018     -29.74894276     -25.60963998
H        7.44169500       7.56932000      12.51484000      24.20455229     -13.47874541      20.98814930
H        8.93531500       6.72089000      11.88360000      -3.39339876      -1.27274377      -8.54372003
H        9.18381500       8.14563000      12.91746000     -14.06853384       0.84517737      -6.19187792
N        6.37314500      10.15345400      10.94527200     -49.20733943     -65.30795927     -44.62862827
H        6.02193500       9.27715000      10.43956800       7.48460126      41.94797644      18.14609667
C        5.57023500      11.33310000      10.76808100      14.19284328      18.04311773      20.16467335
H        4.91839500      11.29131000       9.89729700      -5.81135358     -10.14790427       2.07479441
H        5.07174500      11.66613000      11.68796000     -10.69979551      -8.66685629      -0.71082364
H        6.24783500      12.14172000      10.58165800      16.30053407      18.82274765      -6.96621076
42
Lattice="20.0 0.0 0.0 0.0 20.0 0.0 0.0 0.0 20.0" Properties=species:S:1:pos:R:3:dft_forces:R:3 dft_energy=2.2768586543388665 energy=-620670.7657942497 pbc="T T T"
H        5.15744500      10.04390200       7.93253000      44.24657524       2.71879788      -2.63455424
H        6.57827500       9.18589000       7.10600000      -8.15477014      -5.01270397      10.14560532
H        6.73591500      10.82454600       7.26747000      -5.23691126      20.87640116       1.66340009
C        6.31653500       9.98968830       7.81833000     -22.40342824     -16.93736811     -17.89996635
O        8.02700500       8.95443200       9.17235800      14.33409862     -15.12937090      -5.02583408
C        7.10876500       9.75332600       9.08706700      -3.19003611     -12.70598865      -1.31721787
N        6.68459500      10.48008500      10.13669400     -14.58473204       7.62238446       4.34626792
H        5.91891500      11.05089000       9.87808000     -22.12222109      20.22866486       4.10537543
C        6.94269500      10.29915800      11.54364000       4.10509102     -37.82810812      14.79803708
H        6.32679500      11.03515000      12.08118000      18.78648579      12.12141435      -2.85133141
C        6.33408500       8.97638400      12.17224000     -37.31830907     -29.24388383      -6.75451736
C        8.49528500      10.45282600      11.73835000       7.21544585      19.89140590      -5.34412074
O        9.06025500      11.55749000      11.70120000     -15.15188643      -7.61277389       7.47288133
H        6.48950500       8.99969400      13.30077000       0.67933152      -5.76128615     -29.20951802
H        5.17717500       8.96014500      12.01507000      36.35251126      11.85596807       6.89764504
H        6.54879500       7.92109000      11.71418000      11.21927623      42.53954241      16.92148874
N        9.20010400       9.29292300      11.82560000     -39.91411289      11.12147587       3.04386291
H        8.74090500       8.50652000      11.40663000      -9.76151405     -15.06419436      -2.75882812
C       10.60766200       9.25107400      11.76082000      15.82296779      -7.62093873      14.30767249
H       10.97073500      10.17838600      12.19539000       3.86695965       3.90048409      18.28462644
C       11.12699500       7.98326000      12.48733000     -26.19208124       9.56255970      -3.29757740
C       11.09751500       9.31907800      10.32775700      -2.46972869      30.55499880     -18.78067916
O       11.43421500       8.28867000       9.78161660       9.06299930     -36.61037335     -22.23669480
H       10.79579800       7.88281000      13.52197000      -3.84705118      12.18113976       4.86205136
H       10.91125500       7.00618000      12.04226000      -4.81460284       6.83435270     -14.00063174
H       12.15852500       8.11842000      12.47120000      51.75633464      -4.69857674       5.29866307
N       11.11810500      10.55504600       9.69763050       9.94710128     -39.48892485      33.39195582
H       10.93459500      11.32292000      10.31644800      -8.19116235      11.66893511       6.14538927
C       11.19706500      10.88658900       8.28728000     -59.95613585       2.18444505      24.70226404
H       10.41709800      10.32589900       7.74798000     -10.69999697      -8.33071125       5.66316583
C       10.73458400      12.35362000       8.20261000      34.46464316       5.33424946       3.55590165
C       12.37459500      10.52524300       7.48552000      45.74184356      16.58932539     -19.14827484
O       12.64544500      11.32211000       6.53664000      10.88015677     -50.99981277      27.97981447
H       11.61984500      12.99382000       8.56223000     -27.10739686      -9.96562327     -19.71234817
H       10.50805600      12.43613000       7.13242000       1.17692596      22.95600679       4.95611888
H        9.86817060      12.58498000       8.86453400       6.92369196      -9.71273829     -11.52705170
N       13.00780500       9.34707700       7.89739000     -40.74197345      64.52690732      -9.47295973
H       12.57918500       8.86461000       8.68379000      -9.28661408      -8.43184154       3.08695052
C       14.20894500       8.90713000       7.38119000      72.81463761      -2.06858487     -16.62866832
H       14.76913500       9.76997300       6.90559000      -2.07757923      -8.80969956      23.30487903
H       14.84255500       8.32745000       8.16233000     -19.82954743      22.58106393     -27.91688948
H       14.10685500       8.32397000       6.47803000      -6.34524424     -25.81713838      -8.41635322
42
Lattice="20.0 0.0 0.0 0.0 20.0 0.0 0.0 0.0 20.0" Properties=species:S:1:pos:R:3:dft_forces:R:3 dft_energy=2.569531781016849 energy=-620670.473121123 pbc="T T T"
H        8.12107500       6.42714500      12.35031000      28.37905040      30.09864452      -3.14743435
H        8.62829500       7.83376500      13.36984000       5.20100491      -3.75729716     -22.24996711
H        9.81471300       6.95496500      12.48749000      67.32606195     -21.63955919      -3.75147867
C        8.86899500       7.32426500      12.38986000    -108.16212662      12.48877302       8.81022097
O        8.72915500       9.55095100      11.26122000      -0.38006455     -41.68892932      16.43337571
C        8.58967500       8.29874500      11.21795000      -1.25447063      37.00060307      17.26005124
N        8.01601500       7.78028500      10.10391600      21.57651570     -12.59921763     -10.52599931
H        8.30174500       6.83140500       9.87274210      -5.59514522      -3.87356026       4.13054543
C        7.88312500       8.63393500       8.90279000     -25.54481895      22.39454053      33.48296597
H        7.67083500       7.89876500       8.18040000       1.93081351     -19.62655214     -37.59560562
C        6.60751500       9.43240100       9.02396000      -6.26377357      77.24581278     -69.66376667
C        9.14349500       9.36861900       8.53628000      21.33311095      38.40806082      -7.59861280
O       10.14925900       8.69184500       8.29542000       2.68139839       1.67685016      -2.29915576
H        6.55533500      10.28927100       9.68202200      13.89232018       0.55401599      22.78536276
H        6.28735500      10.07086600       8.01431000      19.52203267     -48.21428597      41.30592827
H        5.83048500       8.79192400       9.29018300     -37.63293401     -26.55043370       6.70702144
N        9.14701500      10.77741500       8.44458000      -4.37348802     -33.32417222      -5.84590900
H        8.40694500      11.28184500       8.92597000      -1.94800827      -3.55656527      -2.33143593
C       10.35515440      11.55064500       8.13986000     -11.01011879       3.36461443      58.50921667
H       11.01570100      10.93395500       7.60583000      15.88778882     -26.19729536     -35.23254130
C       10.13060900      12.89267500       7.47353000     -19.97115828     -43.20979425       0.60748327
C       11.28000900      11.72907500       9.39994100     -77.45331119     -57.71465540      17.73192938
O       12.15155500      12.51586500       9.32705900      77.16143879      56.68059997       1.42637080
H        9.56715500      12.63623500       6.58349000      -6.88688499      14.52998374     -11.69651071
H        9.63931900      13.57285500       8.13616000     -16.24531176      13.83970494       9.01961542
H       11.08210700      13.28201500       7.25812000      30.88680664      15.77817373     -12.88563890
N       10.99756900      10.90747500      10.47745500      12.69733795     -13.34009713      13.02013958
H       10.16943200      10.29163900      10.46145200       8.48512039      12.81951434       0.14038434
C       12.05323500      10.49458500      11.46568000      -8.83336457      25.99667012     -20.16159228
H       12.67716500      11.36887500      11.62826000       0.13655552      11.66048586       6.42581430
C       11.57446500       9.90698200      12.79621000      -9.34411164      -7.92673520       7.95756963
C       13.03541500       9.48815700      10.90246100       8.33233474      -5.51624606      12.76832113
O       14.07830500       9.26956800      11.51276000      12.49007655      -2.83022606       6.45148200
H       10.83829100      10.55900700      13.35117000      13.54285542     -14.49040381     -13.66562432
H       11.16203400       8.87612000      12.61810000      -1.91673538      19.27839091       4.52039594
H       12.47968500       9.72338640      13.41651000      -9.38398783       7.83764480      -5.02820413
N       12.64523500       8.78691100       9.84313000     -67.80872385     -26.07334143     -63.73459761
H       11.68179500       8.96901500       9.40194100      37.14778354      -2.28813500      18.25334170
C       13.13050500       7.41701500       9.60845400     -56.43458816     -26.89373631      26.07879256
H       12.70881500       6.77479500       8.75629000       9.74377418      40.69800891      10.76044524
H       14.16951500       7.50503500       9.58708300      45.04220304     -13.03625596      -0.45767677
H       12.75399500       6.80116500      10.50599900      23.04689844      11.99651239     -16.71493836
42
Lattice="20.0 0.0 0.0 0.0 20.0 0.0 0.0 0.0 20.0" Properties=species:S:1:pos:R:3:dft_forces:R:3 dft_energy=6.922756475280039 energy=-620666.1198964288 pbc="T T T"
H       14.35482500      12.33371000       8.35057000      -0.60847632     -24.77620979       4.87717231
H       15.12603500      10.95566000       7.56184000      11.81277380      -0.73116583      -9.98867206
H       15.89929500      11.95084000       8.93136200      -0.50659591     -22.19308577      -4.67211507
C       15.00703500      11.42057000       8.53201000     -13.81754491      36.76821908      19.18145562
O       14.69467500      10.37332800      10.73692600     -15.57754849       3.18470348     -28.18968293
C       14.39417500      10.41347200       9.53289800      25.09498232      14.05763158      30.15208928
N       13.49644500       9.58442900       8.89976900       6.04834733      -7.59182259       9.34520186
H       13.83292500       9.50264500       7.95473000     -13.93272963      -5.96557313     -16.17006249
C       12.88843500       8.35887000       9.43363400     -14.00857143       6.25799063      56.50130523
H       12.43020500       7.90246000       8.57996000     -11.80071022     -10.62255539     -13.41546491
C       13.79691500       7.32166000      10.13530800     -14.61637228     -26.22905411     -49.42668811
C       11.73461500       8.57714000      10.50905900     -45.19021303      12.91336855      -4.47019815
O       11.05172600       7.61409000      10.96336000      41.91526967      51.60109598     -19.20077158
H       14.07453500       7.59472000      11.12865000       8.95403597       7.65805381      16.37293928
H       13.20920500       6.33224000      10.15027100      21.16483698      29.44877517       0.90949951
H       14.65150500       7.25272000       9.43711200       4.83951212     -10.89348834      13.80699816
N       11.43897500       9.93436700      10.79328000      14.08429471      -3.96436895     -22.34548037
H       11.97801500      10.72544900      10.36934500      -2.21849091     -32.55307450       7.16042500
C       10.38459170      10.44056200      11.70435000      59.77032346     -36.09796724      -4.60635787
H       10.22919900       9.53742500      12.31702000     -10.76436769      10.05876647      11.27999707
C       10.97246300      11.65650000      12.44300000     -48.67490635       6.46859381     -15.73788278
C        9.12230500      10.80937800      11.01465000     -40.82788798       6.09334284     -14.06924486
O        8.18490500      11.16302900      11.75629000       8.95014908      -2.51100322     -34.29032554
H       11.78179500      11.48760000      13.08567000      35.94225457     -18.43998361      16.24756332
H       11.23677200      12.44952000      11.71617000      -3.72195962      -2.72174860       5.34325567
H       10.16157100      11.98347000      13.09658000      -3.42995688      12.95188196      -0.83725309
N        9.11941500      10.74984100       9.58565600     -11.79222542      -4.51528846      92.01351314
H       10.03904500      10.47482100       9.34007800      22.33090452      -4.98799613     -31.44969494
C        8.21161500      11.58354000       8.87829900      -8.49941183       9.14958929      -9.35092555
H        7.70073500      12.10507000       9.66722230     -13.80427260       9.72875987      13.82903968
C        8.93800500      12.61974000       7.98248000     -65.84051086      14.46954732       0.85824230
C        7.04008500      10.74645900       8.10134000      24.79967334      27.57299436      50.68530634
O        7.06822500      10.62421100       6.90342000      -8.05241927     -12.47644873     -29.40398111
H        8.52576500      13.66776000       8.07586000      -1.56874006     -20.91017446       5.76562335
H        9.97593100      12.77841000       8.11060000      31.32100090     -13.85973191       0.07676362
H        8.56159500      12.27520000       7.03409000      19.13689857       2.70476714     -30.89308729
N        6.08237500      10.30174770       8.97683200      -4.77208403     -25.43307081     -20.06193142
H        6.14936500      10.52705200       9.96329900       6.67661362       0.85385533       0.48598828
C        4.94642500       9.43644300       8.55500000      -2.52758176     -11.73828294      -1.20353813
H        5.21577500       8.68866000       7.72496000      -3.71981472      37.03093978      12.93327702
H        4.63571500       8.69656000       9.35580800       6.64481932      26.99446369      -5.29611526
H        4.10070500      10.14747360       8.30850000      10.78653956     -26.75508804      -2.74594687
42
Lattice="20.0 0.0 0.0 0.0 20.0 0.0 0.0 0.0 20.0" Properties=species:S:1:pos:R:3:dft_forces:R:3 dft_energy=19.777328918338753 energy=-620653.2653239857 pbc="T T T"
H       13.38720500      12.41183500       6.48630500      -6.78868172     -17.45024823     -18.14811121
H       14.10689500      13.11893500       7.87789500     -39.79691363     -25.43081925      -5.56556693
H       12.26715500      13.00604500       7.75480500      21.39828749     -22.10112760       0.62614746
C       13.21644500      12.40593500       7.54907500      28.93447302      74.28549435      26.06303169
O       13.99939500      11.18423500       9.48309200     -28.09286614      -5.30074872     -45.67785205
C       13.44959500      11.16286500       8.33814500      12.36363407     -35.38754296      22.05111942
N       13.11039500       9.96126100       7.70019500     -16.45198065      21.56573195      -6.54134268
H       12.52096500       9.98900500       6.82210500      22.17317730       4.91755807      32.00286601
C       13.45921500       8.62511300       8.18178500     -10.41907423      -3.20373503      37.03733894
H       13.07998500       7.94829500       7.44131500      -2.84258590     -12.26693578     -14.99652926
C       14.98527500       8.46477900       8.36570500      31.78209529      23.71892781      -6.24682767
C       12.59706500       8.06531500       9.52975400      38.51589836      15.51403099     -37.20099130
O       12.42496500       6.88106500       9.72212590      -7.38898135     -27.35684525     -11.39800216
H       15.23349500       8.54477100       9.49893600       2.24643387      -3.01497192     -45.73579992
H       15.39861500       7.54073500       7.87006500     -13.69335398       8.14549137      20.93588957
H       15.54455500       9.30115800       7.71411500     -25.95235007     -30.68061177      39.20451813
N       12.14396500       9.02336700      10.32567200      35.07516958      57.63383649       3.51380946
H       12.69405500       9.90777900      10.34296600      -9.52449660      -8.02794844     -11.90692428
C       11.31082300       8.82599300      11.46203500     -31.00720549      16.50009278     -20.26184565
H       11.02848300       7.77664500      11.37181500      15.11740212     -16.99507898      26.54237551
C       11.90187500       9.37331200      12.78736500     -43.90824975      20.28673123      -5.01347423
C        9.90614700       9.37555900      10.99579500     -59.72031528       6.84666514      25.87390122
O        9.24259500      10.28251500      11.55156500      33.18173185      -6.36197684      -4.01278919
H       12.88949500       8.94746100      12.98795500      -4.92783226       0.06324708       5.84164290
H       11.84551500      10.50022500      12.96189500      15.30487355     -20.92676485     -28.37004419
H       11.10389400       9.18739750      13.51369500       8.56806050     -22.06427323      14.22922364
N        9.23807500       8.64125400      10.02169500     -13.20559646       2.19014504      -5.72460953
H        9.60687000       7.72339500       9.65780200     -10.03900020      30.82767374       7.65596816
C        7.82629500       9.12262096       9.45245500      61.01282531     -10.96930643     -24.24010313
H        7.66331500      10.20333500       9.75874650       9.72934054     -26.77428549      -1.75571378
C        8.06974500       9.06691170       7.82601500     -46.64459789     -14.72385432      47.39815719
C        6.67550500       8.18166600      10.00241900      18.77250246     -11.71352771     -89.28107559
O        6.14055500       7.37643500       9.21609700       4.43624710      10.23430467      23.66524605
H        7.00509500       9.14682370       7.44997500      25.98529385       4.56604321      -5.84750879
H        8.73952500       9.90592500       7.53702500      -9.01222085     -13.56679299       0.81808408
H        8.41849500       8.03351500       7.54439500      -1.09613549      23.03647019       3.82305436
N        6.42215500       8.36287500      11.27701500       0.36492937      38.16572259      20.68892974
H        6.88310500       9.19985580      11.60858500       3.10551991       2.43339573      17.50416700
C        5.40977500       7.70894500      12.01247500     -22.99641625     -10.21387478      38.33198202
H        5.07668500       6.89553500      11.39618500      -4.63230998     -18.39542656      -6.29608928
H        5.85624500       7.32723500      12.95317500      -6.04596542      -2.60672978      -5.38251565
H        4.45544500       8.24644400      12.32695500      26.11920202       4.60189031     -14.20386404
42
Lattice="20.0 0.0 0.0 0.0 20.0 0.0 0.0 0.0 20.0" Properties=species:S:1:pos:R:3:dft_forces:R:3 dft_energy=15.645337453577667 energy=-620657.3973154505 pbc="T T T"
H       13.17702500      10.87908500      13.20854000       3.61941915      -4.78201457     -14.87707844
H       13.03280500      10.48603500      11.47064000       6.34375111       4.02761389     -19.03072006
H       13.93301500       9.39896000      12.63529000      26.89421032      -7.88467856     -11.02506200
C       13.11328500      10.05995500      12.44994000      10.72585428      17.42524414      49.29977161
O       10.85256800      10.09624100      12.94286000      13.66408379     -40.58946035     -10.65474075
C       11.86737500       9.36162600      12.77237000     -31.52636625      48.88465631      -8.70603331
N       11.88245500       8.00675500      12.70531000    -115.62152234      74.82894819     -10.19663263
H       12.64705500       7.52442500      12.97107000      72.98646666     -47.03696066      18.01918017
C       10.56498300       7.38050500      12.81428000       2.92101105     -47.27977289      42.82015704
H       10.88598500       6.38883500      13.02582000       3.74269761     -33.90448043       7.23086307
C        9.54819500       7.64676500      13.97123000      -7.77985098      31.77356309     -16.23073592
C        9.92347680       7.12364500      11.50252000      12.54340281     -11.41910750     -61.57061799
O       10.42420000       6.24942500      10.72280300     -33.56319237      44.24918230      30.43246691
H        9.81596440       7.16963500      14.91899000       6.96766835       7.42438999       0.94165761
H        9.36376400       8.74715000      14.03457000       5.81934067     -15.29029770      12.18576137
H        8.56377500       7.22411500      13.68678000       9.34297401      -3.80232822      -0.78792511
N        8.85438500       7.93605500      11.21570000       9.96117941     -35.16120262     -61.51610670
H        8.55716500       8.61382500      11.86150000      -7.17645843      23.70992160      26.42517624
C        8.23862500       7.97083500       9.83993200      25.25176152      -6.20734254      11.37270181
H        8.96347700       7.27940500       9.22901000     -31.81302452      23.20735123      19.08167627
C        6.78211500       7.37181500       9.89439500      63.51299737     -32.75405525      39.59237779
C        8.31991500       9.39300640       9.18452000       0.54475500     -36.39149868      21.77062329
O        7.78475500       9.46990416       8.08828000      -6.88165902      24.04492902      -8.47861459
H        7.08197500       6.34801500      10.35620130     -27.82220575      30.56684908      -7.98045252
H        6.06698500       7.94141500      10.50534600       5.47095429      -2.54987214      -1.03628802
H        6.42470500       7.15598500       8.92985000     -15.33663230       0.10818523     -33.70373669
N        8.94528600      10.37900900       9.91397700     -14.72361732      16.18238678     -25.85020066
H        9.68073300      10.07888000      10.50491300      16.75191123     -13.72001711      27.09009545
C        9.21510500      11.70882500       9.29805000      -9.11728543     -16.40623857      24.44084687
H        8.25235500      11.97870500       8.84242000       5.23821479      -0.12724594      -4.42152905
C        9.64227000      12.85400500      10.23653000    -120.43795011      17.45984696      -6.63295719
C       10.28627000      11.48011500       8.21312000     -51.75408309      15.28923118     -67.78976340
O       11.48825500      11.52105500       8.27777000      38.00479579       1.60749047      28.44493796
H        9.19828900      13.01354500      11.26707300      -3.40249978     -22.75964765     -21.59097305
H       10.62047800      12.82475500      10.39325580     105.61917505       6.84271900       6.74068809
H        9.23786300      13.75057500       9.68640700      24.94045467      -6.93607550       8.76462110
N        9.63720300      11.35186500       6.97739000      48.70796863      19.72490946      27.73036608
H        8.70286500      11.05772500       7.07563000     -35.62514108     -12.30450117      -9.27188418
C       10.35504000      11.30510500       5.69479000     -50.54298448     -47.72166983      27.60866370
H        9.85053100      12.03555500       5.08101000       1.70439021       1.57652569     -20.19050696
H       11.35725500      11.54187500       5.90385000      35.31513775       9.26304387       1.84354805
H       10.26077300      10.22432300       5.36308000       6.52974125      26.83140384     -10.29365087
42
Lattice="20.0 0.0 0.0 0.0 20.0 0.0 0.0 0.0 20.0" Properties=species:S:1:pos:R:3:dft_forces:R:3 dft_energy=18.04894431226421 energy=-620654.9937085918 pbc="T T T"
H        7.06038500      12.31278000      10.75879500     -16.48279137       8.24696532       7.28977081
H        6.35362500      11.18558700       9.55891600      36.88127075      24.00037196      -6.05844377
H        6.15033500      12.88074000       9.25420600      -4.17319458      13.96140731      10.73507380
C        6.88818500      12.20323000       9.68752900     -37.35516344     -28.47859275      17.03169634
O        8.80912400      13.62231000       9.51669200     -14.65547821     -19.53103888      -4.61013811
C        8.18981500      12.61269000       9.12081900      29.73673697       2.20874998     -13.40112608
N        8.62728500      11.80718000       8.11043000      24.27209888       7.74791448     -24.22220920
H        8.26678500      10.83723100       8.16456000       7.77005080      15.68455652     -13.32386225
C        9.87986000      12.13380000       7.21704000     -24.18310328      14.34428986      14.15788495
H        9.60978300      11.75993000       6.18417000      14.18810317      -8.06059597      27.80537835
C       10.15999400      13.66127000       7.00967000      19.81828967      31.33545824      18.28498195
C       10.99697500      11.32359000       7.96364000     -22.37332853     -26.00437280     -16.22706233
O       11.24956500      10.18811300       7.50243000      14.87150881      31.91244837      24.93476654
H       10.72095400      13.88817000       6.05345000      -7.15875411     -18.46617273      15.92073260
H        9.25944200      14.32636000       6.91728000       8.16899048     -18.74015120       7.02626798
H       10.81459500      14.12953000       7.85619000     -27.41254157     -19.93181535     -29.29294399
N       11.40410500      11.87113000       9.18047600      -5.21399282     -36.43570022     -14.62928909
H       10.78347500      12.53830000       9.61935800      -8.96529374      15.64236952      -8.12371056
C       12.27230500      11.20187700      10.18561700       6.10827420      58.15513030     -23.35962733
H       13.10776500      10.78713300       9.59857100      -6.00356512     -12.24074666       7.73159664
C       12.96311500      12.48704000      10.91307000     -25.85150419     -12.78479302     -24.00997069
C       11.63252500      10.18916800      11.11795000       1.95921863     -21.97788469      40.95444897
O       12.35095500       9.62256000      12.00313000     -47.87133887      27.94758171     -51.87519295
H       13.21215500      13.21206000      10.06509700      -6.53478947     -18.25796331      27.17802453
H       12.34677500      12.97569000      11.72131000      10.15949385     -11.98134404     -18.00176026
H       13.84966500      12.03675000      11.29320000      23.82522482       3.72384382      19.41668368
N       10.19930200      10.04547200      10.99357000      53.27056341      -5.72099520      -7.47110379
H        9.85956740      10.21695400      10.03297400       1.99452062       0.75799486      13.97112454
C        9.58756500       8.89934000      11.69003000      68.44591340     -16.52853345      18.09040035
H       10.30705900       8.01647000      11.61186000      -9.76371820      18.63255066       2.81197663
C        9.49204500       9.27123000      13.16838000      23.49152094      30.15434084      52.06977455
C        8.38714500       8.48705000      10.98015000     -26.90404606     -99.02449426      -1.40233843
O        7.60431500       9.21712000      10.44009700     -31.12867085      38.26384291     -22.30424139
H       10.56893200       9.56013000      13.61208000     -47.01077154     -24.54074473     -25.67137994
H        8.98930600      10.24379400      13.22771000      -6.78857507       2.83160069      -2.77973202
H        8.94829600       8.64844000      13.94655000      14.51777795      -0.60691446     -29.01943953
N        8.18108500       7.05197000      10.91662000      48.27330036      29.05996749      24.31843348
H        8.88469500       6.43165000      11.32954000      -1.43369427      13.59547067      -0.88947727
C        6.96560500       6.41190000      10.50668400      15.39801675     -17.00491471      25.25448709
H        6.58975500       5.76568000      11.39115000      -7.39680254      31.29872237     -26.13484439
H        6.46611500       7.30004000      10.13818600     -36.12344535      -6.94191769      -2.49384401
H        7.17284500       5.67364000       9.72423500      -2.36646535       3.75388428      -9.68148911
42
Lattice="20.0 0.0 0.0 0.0 20.0 0.0 0.0 0.0 20.0" Properties=species:S:1:pos:R:3:dft_forces:R:3 dft_energy=11.997293678461574 energy=-620661.0453592256 pbc="T T T"
H       11.03787000      14.36087500       6.76461500      -3.61296075       8.14687785       6.00408653
H        9.21467900      14.85693500       6.60844500      36.67898647     -21.98748341     -25.07519235
H       10.11787300      13.39787500       5.61512500     -13.16459449      14.58200647      -4.09049148
C       10.02536230      14.02308500       6.51507500     -31.95356884     -14.41906512      38.36765136
O        8.61715000      12.17090500       7.32853500     -18.54959870     -16.27339693     -17.62551387
C        9.37303000      13.07902500       7.60905500      12.56793289       6.38467013     -15.75388066
N        9.52087800      13.44004500       8.90794500      -5.43013008      -8.55629318     -36.07912530
H       10.34992300      13.94836500       9.06993500      17.45036673      23.65256625      21.67949464
C        8.51209000      13.21991500       9.88668200     -34.12501414     -29.64347527      -3.42674545
H        8.82269000      13.85250500      10.64819300       9.09788652      33.49540876      39.95547037
C        7.03468000      13.74314500       9.54675500      70.41246736      39.66620504      17.62966147
C        8.53709000      11.91382500      10.73389030     -19.60996175     -58.43716697      -2.81512880
O        8.52574000      12.06573500      11.93770500      10.68792153      16.43302020      46.42773777
H        6.54117000      14.05502500      10.44979500       0.61135002       3.20795373      21.84480604
H        7.23735000      14.68371500       8.99839500      -9.37883296      -7.30656265      -4.29038200
H        6.33918000      13.14374500       9.08561500     -26.10474467     -42.09657895     -39.07783864
N        8.43959000      10.59565000      10.25946000       3.57912820      30.97769829     -10.48066014
H        8.22647000      10.61278500       9.27532500       3.40571120     -18.38405029     -16.12349089
C        8.43752000       9.30281500      11.07378500      -2.49328705      19.40151532     -59.76984945
H        8.03622000       9.53942200      12.00169500     -17.73939506      18.87927349      46.67908220
C        7.46402000       8.26452500      10.44764400      -8.72504116      22.25186316     -16.68377212
C        9.91680540       8.90000500      11.25183900     -23.58182008       4.81380887     -13.14302698
O       10.43171800       8.11468500      10.42939200       8.30295789      15.75494718      26.61715078
H        6.54170000       8.80360500      10.02821500      24.48137483     -10.52272863      15.77959576
H        7.90226000       7.73641500       9.56459500      -2.16728585      -0.26753429      20.03716434
H        7.10131000       7.62266500      11.27472200       6.51539056      -4.83189239     -13.85285875
N       10.50922600       9.60470900      12.27314500      48.08381439     -67.45475599     -53.72833973
H        9.97973920      10.21450100      12.82225500     -21.69015989      29.57900975      24.44511297
C       12.01074000       9.47770300      12.36698500     -38.24689701      21.33322946       0.56724209
H       12.26279000       9.40362500      11.29312600      11.06651428      -4.53300463       7.07944019
C       12.57445000      10.77106300      12.95009500      -5.30065392      -7.80268647      13.71634352
C       12.36406000       8.18824500      13.17838500      -4.80169788      36.00648308      -6.74362696
O       12.56719000       8.30283500      14.38487500       4.14066557     -17.72754478       1.97924561
H       12.20486000      11.10284500      13.93092500     -14.92602010     -11.67944630      -0.24596915
H       13.59403000      10.56193000      13.20989500      25.59447162       5.73174340      -7.75219243
H       12.42234000      11.62416500      12.29123500       7.06953335       0.52037542      -9.00416266
N       12.36978000       7.09213500      12.40832500       4.25650205     -56.95410443      -6.11547917
H       12.12376000       7.18342500      11.38407200       1.35432109      -0.18270880      33.99691261
C       12.73487000       5.66137500      12.94349500      13.46096999      57.51936278      -1.72540076
H       12.99192000       5.14306500      11.99419500      -7.16315057      -7.51093258      20.15282307
H       13.66082000       5.83849500      13.57715500     -18.63847580      -9.43442262     -15.68562304
H       11.96262000       5.21366500      13.63138500       8.58521971       7.66787769     -23.67022316
42
Lattice="20.0 0.0 0.0 0.0 20.0 0.0 0.0 0.0 20.0" Properties=species:S:1:pos:R:3:dft_forces:R:3 dft_energy=9.340190410846844 energy=-620663.7024624932 pbc="T T T"
H       12.77007000       9.35246500       7.69730000      -3.81619305      22.06711729     -21.32813384
H       12.95038000       7.64422500       8.11337000      34.87963996      43.90979028      10.32837219
H       14.39180000       8.98857500       8.44394000      -9.23377368     -12.73063724     -13.53278269
C       13.30851000       8.75292500       8.38398000     -14.66578795     -73.62401173      25.68275621
O       12.59221000      10.33970470       9.91974800      -2.89401612      13.20310790      35.25718988
C       12.75293000       9.14196500       9.74218110     -21.83248175     -28.03385175      14.12778524
N       12.39758000       8.09781500      10.66018900       2.76227655     -58.49961794     -79.32210033
H       12.22363000       7.13491500      10.07065300      18.29197361      68.97633193      43.49680803
C       11.63074000       8.06662500      11.91259000      -6.07194124      42.32137876      12.14416688
H       11.52216000       7.00163500      12.19302000      -8.50220850       9.49989542      -9.45946226
C       12.40172000       8.68636500      13.11409000      61.02040949       6.97705377      16.38573758
C       10.15446730       8.66821500      11.73753000       5.06256994     -39.35027657      23.60398010
O        9.23729800       7.88116500      11.89024000     -24.73141573     -14.24012590      -0.48096257
H       12.93349000       9.71838100      13.04860000     -23.39186009     -33.07223527     -14.71982523
H       11.95048000       8.72911500      14.11344000     -24.36927118      -2.23230833      -8.93057242
H       13.24927000       7.96090500      13.37257000     -13.26650690      17.43164329     -14.99712178
N       10.01143900       9.98176100      11.56434000     103.79446894       8.06717287     -18.91435032
H       11.00227600      10.37419688      11.35535000     -45.45980690       2.88704815       9.74578873
C        8.87323000      10.83874000      11.56402000      18.02309076      -4.25958312       4.23910584
H        7.99391000      10.17499800      11.56116000      -3.36549135       6.57356359      -1.77117839
C        8.95046000      11.68611500      12.79361000     -10.54162983      22.43281693      41.46199646
C        8.91368000      11.75807500      10.36348700      17.03785849     -60.12298779     -22.89355582
O        8.21126000      12.72879500      10.33047400     -26.43394545      53.23003546     -11.84062196
H        9.90332400      12.23524500      13.00246000      -8.49878377      -3.72461409     -21.98392833
H        8.11090000      12.42199500      12.81108000      11.12353782     -10.19601641       4.08121271
H        8.93045000      11.02506400      13.66608000     -12.84688848      -1.87687104       4.43888971
N        9.70795900      11.28820200       9.34753600       4.48413408      -0.48631534       0.78245858
H       10.20531090      10.39534800       9.46517000      -8.38762814      14.29262264       1.83520545
C        9.91168600      11.96284500       8.08396000      64.90481275     -16.08319993     -17.02968179
H        9.73897800      12.99836500       8.21281000     -11.01347242      30.98208289       8.18687255
C       11.41762000      11.83111500       7.59954000     -23.36934456     -37.95692066     -17.06037402
C        8.93423000      11.40368500       7.07915000     -63.68684098      33.04296508      55.28925860
O        9.08449000      10.48526000       6.33058000      18.96281796     -35.05312806     -41.30249169
H       11.63730000      12.48952500       6.77132000      -3.49092657      18.45716651      -5.14958655
H       12.12458000      11.98697500       8.41061000       0.79444040      -1.65355251       1.67224040
H       11.58853000      10.81814400       7.07209000      -7.70902186      23.70743304      25.88658102
N        7.67024000      11.92678500       7.37998000      -6.87024720     -16.15524964     -23.59758095
H        7.50298000      12.52657500       8.16058000      15.84785337      14.55380281      17.68595030
C        6.42243000      11.33671800       6.92148000       8.76329387     -32.92955790      -0.31968856
H        5.60820000      12.03175500       7.11142000      -3.32691869       8.86583434     -14.42025015
H        6.56702000      10.96264900       5.88656000     -10.53276582      12.48095184       5.27189329
H        6.10420000      10.42275370       7.50025000      12.55596411       8.32127842      -2.54989584
42
Lattice="20.0 0.0 0.0 0.0 20.0 0.0 0.0 0.0 20.0" Properties=species:S:1:pos:R:3:dft_forces:R:3 dft_energy=8.499043235904537 energy=-620664.5436096682 pbc="T T T"
H       11.65939000      12.10471000       7.83552000     -37.30693280      -0.23161491     -11.38897224
H       10.68005300      12.98171000       6.54124000      -1.48632136     -15.46461532       6.63793431
H       10.84600500      11.12869100       6.51437000       5.26945213      27.40104680       3.13852294
C       10.71767900      12.04982000       7.16404000      23.87748456     -25.28553482     -25.03952301
O        8.69942000      10.71377100       7.50429000       9.87890292      24.78403097       7.94402476
C        9.38124300      11.71335000       7.83969000      35.46836187     -13.93035958     -18.40561780
N        9.22399300      12.50417000       8.89097000     -61.85857979      23.32265445      45.44191298
H        9.82909100      13.31178000       8.98845000       3.53492666      -4.66965021       0.03073489
C        8.07644000      12.42991000       9.91891300      37.27742561      -3.08051582       6.84901149
H        8.13613000      13.36576000      10.60678000      -1.27091882     -30.95091666     -29.34579624
C        6.66985000      12.19234000       9.36168400       2.26464775      17.97225306     -48.93359796
C        8.46629000      11.21801900      10.82972700     -28.33342682     -30.91346977      -7.37858865
O        8.53743000      11.29486300      12.05309000       5.39985261       3.53487925      -9.49754906
H        6.54580000      11.25847700       8.74234000       5.98748429       8.06044191      29.57047755
H        5.98862000      12.32156000      10.20680600      -7.98108059      -6.73843653      -4.79738438
H        6.42911000      12.93626000       8.53314000       4.33140767      -2.20141465      26.87015426
N        8.40975000       9.97768200      10.13016900      23.16160915      -8.01183206      21.98535036
H        8.70199000       9.94752300       9.12405600     -24.28098659       8.33109046      13.38181012
C        8.66719000       8.68938000      10.88611700     -47.16055908      41.83859836      24.34557062
H        8.43357000       9.01379000      11.98383000      13.54878056     -15.87392399     -34.47234584
C        7.62787000       7.57472000      10.48416100     111.93253019     -23.86409374     -12.02957468
C       10.12778810       8.27496000      10.86635800      24.24519875      32.79778278     -42.75047740
O       10.62039100       7.50690000      11.66464000       6.75675707      -9.06330740       7.18950559
H        6.66841000       7.75012000      10.74275900     -72.48365929      20.45334617      34.95263769
H        7.58856000       7.47383000       9.39424700       9.52950927      -6.32721997      -3.60838654
H        8.04768000       6.63424000      10.97790200     -18.54379206      18.10390967     -16.67867650
N       10.88251200       8.91163000       9.80745100      26.95784633     -47.15238238      47.36699095
H       10.48350600       9.66759800       9.36322000     -36.92476128      42.31853469     -24.66221010
C       12.36651000       9.15444000       9.82132400      -8.20040557     -69.96737084     -29.82182198
H       12.72394000       8.19694000      10.31432600       4.99701419      27.55569295       0.07580624
C       12.89151000       9.11518000       8.28954000      -3.59523273      70.08054102       9.88344158
C       12.58405000      10.44262640      10.59547500     -15.98899021      44.50420033       6.69251670
O       12.63535000      11.58031000      10.02880150       8.54920671     -52.03268317      14.76947790
H       12.65587000       8.24823000       7.68052000      -0.26124416     -17.17330719      13.25406410
H       12.29970000       9.95046200       7.72872000      26.40597879     -23.34469597      20.83682123
H       14.01138000       9.38422000       8.20279000     -36.17700861      -9.65437567       5.70472476
N       12.45611000      10.35564740      11.98503000      29.74076607      23.18092510     -71.57569084
H       12.27282000       9.48524500      12.41290000      -1.76291875     -27.22317409      13.01990257
C       12.76464000      11.53682000      12.74100000      12.25674454      -4.76991543       1.02175839
H       12.00668000      11.53871000      13.48563000     -11.85134647      17.11061921      28.40749107
H       13.79400000      11.53879000      13.16573000      -9.43143635      -5.09178088       0.85472396
H       12.70768000      12.39815000      12.07415000      -6.47221999       1.66610196       0.16082726
42
Lattice="20.0 0.0 0.0 0.0 20.0 0.0 0.0 0.0 20.0" Properties=species:S:1:pos:R:3:dft_forces:R:3 dft_energy=-1.4818017354700714 energy=-620674.5244546395 pbc="T T T"
H       11.15598900      12.84970000       7.77900000      -0.88324284       7.59233215     -14.45698602
H        9.93903400      13.01963000       6.33235000      12.23707308       0.69040323      15.42124330
H       10.95292300      11.59988000       6.52738000      -4.46107343      -8.74940534       5.51120969
C       10.42772800      12.36763000       7.10195000     -16.58837737       3.20659095      11.05357377
O        8.58043000      10.86909600       7.70720000      11.66773823      -0.77541833       1.51949030
C        9.28435700      11.84001000       8.00111000      -5.73381720      18.99682826       8.64166259
N        9.02604000      12.66817000       9.13141200      54.77329741     -17.35615701     -43.75538114
H        9.84216800      13.28711000       9.34285700     -25.14890109     -14.57003769       3.64705400
C        8.01440000      12.37332000      10.13844470     -13.78009803       4.60260133     -57.24858389
H        8.12912000      13.17389000      10.81270600     -19.83642060      38.27036056      15.50289173
C        6.70641000      12.22126000       9.35737300     -45.48931410     -17.14107442      36.69616938
C        8.43106000      11.29755300      11.07326600       0.41046407     -23.89277142     -43.58864770
O        8.81212000      11.70376000      12.13464000      24.74160697     -13.85890239      67.63002163
H        6.71935000      11.26562600       8.77633000       0.02931842      24.46170336      -0.02838237
H        5.79509000      12.10278000      10.04540860      25.99738114       4.70725115     -10.09127179
H        6.48268000      13.11970000       8.76719000       5.94007132      -6.36171613      -6.38033292
N        8.48700000      10.04364900      10.53486300     -23.00257839     -28.27879703     -33.65337300
H        8.01688000       9.90236100       9.58912900      20.82437844      12.49837175      31.15000136
C        9.01050000       8.83007000      11.13660000     -14.02267326     -15.97157030      11.84859720
H        8.97209000       8.97632000      12.21104000       3.00384451       2.78854862      13.02120610
C        8.15741000       7.54867000      10.83088400     -42.99234161     107.18910014     -26.71159751
C       10.44536700       8.50150000      10.84463600      43.02599641      50.64264533     -51.17365638
O       11.08259500       7.64906000      11.42528000       1.21899090     -21.08923219      19.99059274
H        7.16226000       7.76545000      11.31045000      12.53771468     -15.40725997     -18.79406997
H        8.17151000       7.44550000       9.73975700     -17.20435492       1.34620365      -4.24490063
H        8.59635000       6.71289000      11.15904000      40.05216866     -73.35169229      43.16500019
N       11.08503100       9.31854000       9.85830100     -48.39606926       5.44701673     -16.26510173
H       10.45341200       9.98428000       9.29325300      33.41174579     -26.45954206      27.60949322
C       12.56521000       9.33237000       9.74738000      -9.99353068     -34.56762209      -1.70401100
H       12.73654000       8.33484000      10.23029600      16.51881623      21.71208291      10.87295180
C       13.15268000       9.23181000       8.31917000     -70.48451706      13.75011682      -7.99114148
C       12.87557000      10.64359930      10.48752500       2.23183432      20.12319737     -12.75919641
O       12.86018000      11.72685000       9.84960600      -0.45819700     -28.33615239      24.55970518
H       12.74898000       8.32013000       7.79013000       9.19470331      17.29631309      11.49784076
H       12.75971000      10.14536800       7.81302000       6.32820354     -11.15149263      -4.89213922
H       14.20491000       9.28429000       8.24046000      32.07704876      -2.72519703       7.58694028
N       12.89843000      10.55094082      11.85064000      21.55719975     -21.65614958     -10.93605454
H       13.13470000       9.64021500      12.30487000     -11.55389259      20.78503551     -19.16048063
C       12.71987000      11.65345000      12.73282000     -19.93939953      16.28098111      21.40895275
H       11.91184000      12.33791000      12.45044000      -6.77710400      -7.30803209     -10.59554860
H       12.40883000      11.20157000      13.66765000      -3.08479377       1.49321822      13.24529489
H       13.52437000      12.34672000      12.96754000      22.05111942      -4.87274031      -7.14871692
42
Lattice="20.0 0.0 0.0 0.0 20.0 0.0 0.0 0.0 20.0" Properties=species:S:1:pos:R:3:dft_forces:R:3 dft_energy=3.0143027529120445 energy=-620670.0283501511 pbc="T T T"
H       12.04979500      11.49743500      13.57642000      -8.36575252     -17.47217125      16.30669621
H       13.22979500      10.88923500      14.69916000      20.19749863      11.97530039      24.77869835
H       11.53437500      10.30161000      15.01846000      15.53986460      15.68171245     -18.99505072
C       12.29713500      10.63654500      14.25483000     -14.32568492     -39.63942340     -19.14791933
O       12.22241500       8.27881500      13.30512000      -4.58296541      -1.18057821      16.54393882
C       12.69671500       9.39849000      13.33363000     -24.92884140      35.38967601     -12.45108913
N       13.49803500       9.86800000      12.29122000     -19.32401449      -1.35534022      35.42676739
H       14.20026500      10.49430000      12.66533000       6.00534266       8.39399174     -12.05872636
C       13.87114500       8.95719100      11.26168000      52.16730235       2.44306556      -4.24871642
H       14.47087500       9.62294500      10.59993800       2.12069055     -11.64755720      -1.60109132
C       14.83400500       7.81161500      11.79934000       4.38254163      24.02715360     -36.97785053
C       12.78479500       8.50083500      10.33613600     -30.99334066     -18.39447853       5.81897331
O       13.07677500       7.66519500       9.49353100       2.02177626      -4.79673261     -18.79596602
H       15.53188500       7.43673500      11.00778000     -25.81239827      -8.03668210       4.38977030
H       15.55521500       8.32468500      12.40899000       6.71028027      10.12522284      22.31858023
H       14.28967500       7.08239500      12.38293000      -1.07426698     -10.29253694      -1.60642395
N       11.50307500       8.97211900      10.48849300      -0.07164549     -31.90581221     -57.95320153
H       11.26458500       9.60665400      11.17282000     -10.80382912      38.13988898      46.23398569
C       10.43798300       8.76738500       9.45262300      43.18407914     -30.82696273     -22.61140065
H       10.98241800       8.88977200       8.46637000     -15.00790553       0.17084667      15.02828801
C        9.78390400       7.34042500       9.49398500      33.34265866      21.36273665      31.43037898
C        9.33755000       9.74866990       9.62860600     -14.84851927      33.38792673      12.46874605
O        8.77488500       9.99090100      10.69392100       6.45621027     -11.08088866      27.47914014
H        8.82120500       7.32926500       9.06692800     -34.21128418       4.59793232     -12.94133521
H       10.36245000       6.57711500       8.99863600      14.47405042      -5.14091214      -1.24392389
H        9.72419100       7.16984500      10.57587200      -6.18415154     -12.76666209      -1.90695890
N        8.94500500      10.43558500       8.53998000       5.82848909      11.68178081     -27.05490012
H        9.33633100      10.14421600       7.63007000     -13.57651022       9.95576384       6.93349214
C        7.77259500      11.31044500       8.56435000     -42.44995430     -22.40781284       8.72829999
H        7.09472500      11.01113500       9.43564900      16.42010339     -10.07916080     -24.44167639
C        8.00381500      12.79718500       8.85930000      10.87831998     -11.25155640     -68.73577125
C        7.04273500      11.06865500       7.18861000     -32.46253836      40.27116183      44.71987542
O        7.54178500      10.39320100       6.32588000       9.37526602     -18.21565781     -30.52999471
H        7.10315500      13.42288500       8.80924000      -0.77018524      -4.87048876      -4.13203856
H        8.39369500      12.88286500       9.81370810      26.54640461       7.74996458      46.85778442
H        8.72639500      13.08771500       8.05906000      -5.59032216      14.35104452      15.83659561
N        5.79751500      11.71297500       7.06325000      24.09624073      17.75231186      20.68466364
H        5.56815500      12.40692500       7.84343000       4.14295267     -28.41839333     -40.48245232
C        5.20375500      11.75432500       5.70138000      -2.98353313     -61.43351025      16.57818613
H        6.02264500      11.83872500       4.98154000       0.29955019       8.66780431      -3.61687134
H        4.83761500      10.62285700       5.53265000       0.83778161      57.19454661       0.21160689
H        4.44478500      12.54795500       5.58713000       3.34032136     -12.10636449       2.75898218
42
Lattice="20.0 0.0 0.0 0.0 20.0 0.0 0.0 0.0 20.0" Properties=species:S:1:pos:R:3:dft_forces:R:3 dft_energy=8.565874107414857 energy=-620664.4767787966 pbc="T T T"
H       10.98766000       8.34981000      13.76339000      -2.94548188       0.28548509      14.53069476
H       12.21426000       7.04736000      13.65944000      -7.81281846      -2.17362575      -4.34846022
H       10.41091900       6.78239000      13.13753000      25.16252892       9.93961190       9.90580306
C       11.31015000       7.47479000      13.19648000     -40.26417016     -18.22359750      16.53434009
O       10.55145200       8.44946000      11.12953000     -13.92111636      -9.84819884       7.17605552
C       11.46703000       8.04546000      11.86305000       1.74680236      22.90149550     -37.93689369
N       12.73835000       8.24475000      11.48717000      -5.66887767       2.33031015     -10.17058571
H       13.42802000       7.88788000      12.09266000      27.52144564      -7.35852613      14.93431529
C       13.10495000       8.76897000      10.22309400     -39.93615441      13.32765434     -68.42244985
H       14.12235000       9.10657500      10.30652400      16.73378030       2.81560281      -6.04431824
C       12.85516000       7.71373000       9.05709700      59.37227256     -18.40099619      31.55137034
C       12.25067000      10.17371700       9.87968820      38.27984079     -53.95847216      16.49677470
O       12.23109000      10.95158000      10.81027400     -15.24834771      29.44119099      -0.42992816
H       13.05024000       8.05940000       8.04063000      -0.98714254       7.15119363      -1.19798035
H       13.57514000       6.81980000       9.18160800     -19.49323649      25.02506567      -0.95808447
H       11.87345000       7.31929000       9.17205200     -24.93405552      -5.90010033      -2.28405851
N       11.73748000      10.30575200       8.62346000      32.00203649     -12.14440389      13.28760039
H       11.89358000       9.56621700       7.96951000       2.16937150     -13.38121761      -6.39682851
C       11.01972800      11.46388000       8.17727000       9.48208445       0.00448970      35.82398877
H       11.08815000      11.96579000       9.14518900     -10.80616362      28.64141560       2.30087405
C       11.83922000      12.28608000       7.14294000       7.63168693       4.90914437     -17.15778332
C        9.52357100      11.03203000       8.00994000      92.02702246      40.73462628     -44.18673133
O        9.02382000      11.57346000       7.03762000     -55.48929133      -6.37530840      -4.72031016
H       12.80374000      12.55223000       7.66865000     -21.07074576       2.75895848      -7.93537406
H       12.20985000      11.71512000       6.23661000     -16.71090926       2.13531379      17.80433459
H       11.33800000      13.21761000       6.71292000       8.79142643     -25.12294898      19.74552895
N        9.17030300      10.07068500       8.84726900     -32.22280720     -50.78401917      25.02980578
H        9.81447800       9.69236230       9.57850700      -6.96141140       7.37021051     -19.48197872
C        7.81623000       9.52009900       8.80568000     -49.80720060      50.95122662      -5.44881797
H        7.34416000      10.21767600       7.96112000      12.11039358     -40.06887755      29.34781079
C        7.55662000       7.96738000       8.62105000      10.30468348      10.09618965     -16.99626400
C        6.96799000       9.99824900      10.12257400      49.59792466     -37.99496006     -20.81501671
O        5.87765000       9.52032100      10.23677400     -66.79173283      -5.30995639       7.62447011
H        8.46167000       7.42838000       8.92337100       0.97531003      -2.43075312       1.98835847
H        6.69297000       7.56684000       9.17712300       6.42192741      14.92056897       7.65510309
H        7.30987000       7.64575000       7.58051000      10.95238423      13.61857871       5.93323371
N        7.63642000      10.63241900      11.09129000      46.76381170      33.78976972       9.03809001
H        8.65739000      10.76160200      10.88198000     -30.48034204       2.42957994      12.12710248
C        7.14910000      10.94745000      12.47342000      29.49143618       8.81190371     -45.73544441
H        7.35746000      10.09310400      13.04638000       3.48261952     -31.64510605      28.93020692
H        7.72415000      11.79127000      12.89427000      -8.05258518      -1.31033285      -7.10446798
H        6.09630000      11.10774000      12.43890000     -21.41653692       8.04173032       0.00593360
42
Lattice="20.0 0.0 0.0 0.0 20.0 0.0 0.0 0.0 20.0" Properties=species:S:1:pos:R:3:dft_forces:R:3 dft_energy=-6.125395043636672 energy=-620679.1680479477 pbc="T T T"
H       12.11057500       9.26642000       6.31963000      28.32015451       5.55638296      -2.53209672
H       10.74465500       8.34086500       5.73607000      -0.54706699      15.77224859      11.71272189
H       11.19238500       8.21915500       7.38646000       5.04146459     -17.41209033      29.03460789
C       11.14325500       8.92999500       6.60446000     -18.99149564       1.73728659     -40.94733880
O        9.00768500       9.88032200       7.00481000      -2.18189724      13.13556130      -4.32967753
C       10.22981000      10.06286100       6.98623000     -15.03125058       7.50800556      28.53488158
N       10.85867300      11.19321700       7.52357000     -80.72529198     -22.33066752     -34.19102020
H       11.79892500      11.05522600       7.53566000      79.95099469       4.62531831       5.18453302
C       10.29175100      12.48686500       7.95063000      -7.06583607     -15.93945604     -13.37458145
H       11.13884500      13.08914500       8.09011000      32.75725483      22.75561856       9.64956445
C        9.42576200      13.17424500       6.89316000     -18.83412392      -4.77960896      21.12490154
C        9.74428600      12.31039500       9.34690100      12.90791742       8.82601740       9.82814817
O       10.28070700      12.94930500      10.26088000     -11.81504906      -4.26753466       1.90834538
H        8.92013500      14.14082500       7.20694000      24.58601280     -18.53715590      -6.92549320
H        9.97707900      13.17265500       5.96601000       6.80245174      15.27169276     -11.03082123
H        8.63184500      12.47987500       6.73443000     -26.30868799     -12.55572710     -10.34916943
N        8.79760500      11.35763500       9.52482800       9.65302473      -2.90988364      27.95978750
H        8.38337500      10.89164800       8.73217000      -1.84724534      -7.70617779     -12.12840601
C        8.32903500      11.08510700      10.89672100     -55.56631815      31.50183617     -49.16823350
H        8.60612500      12.01799500      11.39648000      -5.58476438      -1.71981928      14.80254018
C        6.77757500      10.88395800      10.80758600       7.15921627      34.38595730     -13.45883694
C        8.84659500       9.92422100      11.62865000      51.83099141     -71.89197481      21.10641510
O        8.63848500       9.68299500      12.83544000      -3.23131063      16.60425674     -24.32589915
H        6.17645500      11.76579500      10.59492500      10.55769881      21.69264845       1.93769852
H        6.32834500      10.23430750      10.07747100      16.10239739     -26.44093712     -14.46978432
H        6.47018500      10.58157400      11.74729000     -19.37058609     -20.64366167      49.41590436
N        9.60453500       9.03445500      10.84709200     -12.00160801      40.68841019     -27.80834092
H        9.89043400       9.47468400       9.93738060      -4.08436489     -17.67978815      20.27488095
C       10.37233900       7.90987500      11.37382000     -39.18697972      14.73238652      38.63404565
H        9.71865000       7.57443500      12.21902000      18.96672855      10.00948115       4.30464974
C       10.49691800       6.76383500      10.47420200      51.61211674     -46.25579020     -31.26968919
C       11.75893500       8.49247500      11.72635000     -39.11848510      -8.61874415       5.72132701
O       12.66991500       8.38758500      10.94645700      43.29440525      -5.58623381     -31.16967282
H       11.28325500       7.04625500       9.73402800      -4.70057944      -5.70708297       2.18192094
H       11.01585800       5.85917500      11.04010000     -32.06057687      33.81631435     -23.86788583
H        9.62483200       6.50554500       9.85391900      -3.16699916      -4.41918269      15.59413888
N       11.78769500       9.23851800      12.82670000     -24.55449105       7.37075562      39.95475935
H       10.92426100       9.25216200      13.39255000      12.59744009       6.16925574      -5.95752679
C       12.97014500       9.95482200      13.16784000      52.16955391      23.21114332       7.15938218
H       13.05637500      10.98995900      12.71512000      -7.43428497     -20.00516858      -2.50319388
H       13.16731500      10.19811516      14.26393000     -14.61862384     -21.69892910     -21.81482483
H       13.82354500       9.32726700      12.73573000     -16.28192913      21.73530945      15.59745696
42
Lattice="20.0 0.0 0.0 0.0 20.0 0.0 0.0 0.0 20.0" Properties=species:S:1:pos:R:3:dft_forces:R:3 dft_energy=24.15590325347148 energy=-620648.8867496506 pbc="T T T"
H        5.40051500      13.23268500       9.60703700      -0.39662294      -7.29317184      19.96167806
H        5.42165500      12.69576500      11.37402000      -4.81529015      14.40638532       3.01679687
H        3.89004500      12.57221500      10.33423700      53.67347293     -23.88269868       3.28874894
C        5.08532500      12.46047500      10.35802200     -54.79522043      62.53440125       4.02059853
O        6.48410500      11.20538500       9.01066300      45.67323044      -3.69603121     -49.24585284
C        5.81684500      11.26708500       9.99524740     -35.11309048     -85.27828804      28.90295128
N        5.64897500      10.10501200      10.84036000     -48.80632596      72.84165624      14.40911089
H        4.87085500      10.21533800      11.53671000      26.12773422      -3.32002183     -17.91549022
C        6.01699500       8.78068500      10.54720400       4.80526482     -46.43378141      -4.06527408
H        5.47186500       8.10616500      11.22450000      -4.97907287       8.09755699       6.16801146
C        5.72841500       8.18199500       9.13457200      21.21010505      21.75462541      10.94394683
C        7.45720500       8.55828500      11.02017000      67.27285419      -1.39751536      16.91129750
O        7.85760500       8.61327500      12.20730000     -44.65102529       1.49509057     -17.34857283
H        6.45795500       8.69252500       8.46917000     -13.65839565      -9.04728582      -5.13268805
H        6.05820500       7.12169500       9.29528900     -19.46929892      10.78630256     -18.42126017
H        4.67653500       8.42155500       8.78385000      24.37815889     -16.81910232       9.65854696
N        8.49674500       8.34536500      10.11357100     -12.33199382      13.25524913     -55.05331953
H        8.43418500       8.43811500       9.04228400     -10.82805109      -4.82820696      47.05734314
C        9.81495200       8.70919500      10.55863400      55.30656001     -29.99791714       0.43183250
H        9.75329700       9.20676400      11.54845000      -4.74598971      14.44383221     -18.41450551
C       10.76985500       7.51558500      10.88725700      23.36898905     -41.63726210     -18.71917620
C       10.69300500       9.37512000       9.42135100     -43.03358059      27.71579023      47.79324552
O       10.86233500       8.94251900       8.28484000      -4.83148948      -1.56992509      12.09249966
H       10.34527900       6.76731500      11.57412000      -8.12698123       5.26351514      -0.39882236
H       11.00049500       6.93608500       9.90224540      -5.02757607      19.50864185      33.96136177
H       11.77436500       7.77807500      11.38419000     -28.96563926       4.75282733     -19.00263490
N       11.16298500      10.59045800       9.89756950      12.48521794     -17.30413428      -2.19258620
H       11.25340500      10.83207400      10.89244200     -14.52014801     -12.56508883      -5.52641360
C       12.19650500      11.17664500       9.11892700      40.18370676     -21.46725612     -31.10023018
H       12.10358500      10.60532200       8.15394000      17.22426339       1.58943065      15.97962849
C       11.87005500      12.56693500       8.70653000      52.63491440      20.87023902     -30.67824171
C       13.60174500      10.90906500       9.84433000     -51.98966666      40.46408439     -11.95373288
O       13.86110500      11.58231500      10.84578100       4.60999590     -12.70124854      -0.22817477
H       12.78566500      13.15610500       8.39298000     -14.06047565     -12.66996380       9.66523052
H       11.32944500      12.42837500       7.79270000     -21.54783803      10.61519636     -13.76315213
H       11.34565500      13.15476500       9.39885500     -20.76963014      18.70566689      27.38066432
N       14.35994500       9.94273271       9.31034000      12.56722188     -23.34161490      19.33396873
H       14.01734500       9.45916900       8.44782000      10.51807147       7.09861394      28.88707190
C       15.37208500       9.32818600      10.27896800      14.07991011      10.93748843     -83.36660088
H       15.88965500      10.14830800      10.80032600     -13.90594800     -10.87227634       9.40466657
H       14.95367500       8.46818500      10.77010800      -8.32787903      -0.54888127      23.07972371
H       16.10995500       8.90758500       9.56467300       3.57743361      -0.46492559      10.17806324
42
Lattice="20.0 0.0 0.0 0.0 20.0 0.0 0.0 0.0 20.0" Properties=species:S:1:pos:R:3:dft_forces:R:3 dft_energy=4.468450334738009 energy=-620668.5742025693 pbc="T T T"
H       12.11821000      11.26335000      12.23574000      -7.38425309     -33.66640830      19.27021422
H       12.79130000       9.74342700      11.76189000      -1.71434445      -3.71481391      23.85259897
H       12.27979000       9.97995900      13.60846000      -1.39337962      -1.38689751     -28.99005083
C       12.04787000      10.14590800      12.50949000      33.30485626      19.10549533     -15.00517997
O        9.88619000      10.60572800      11.77042000       1.97668595     -36.94099616      -3.17879019
C       10.70312000       9.68341250      12.06174000     -45.04469159      32.32543063       0.08315981
N       10.38146000       8.33965000      12.02346000     -53.12990059      77.35542787      -9.48193039
H       11.11847900       7.75626000      12.06643000      74.45388683     -55.91317584       7.78280170
C        9.16764000       7.68698000      11.48970000      -8.80535051      -4.85215637      17.28647736
H        9.47726600       6.60090000      11.64198000     -19.34771505      22.16843719     -17.48129596
C        7.93519000       7.99827000      12.39219000      36.65907800     -20.45962682      45.31582600
C        8.95928000       7.99515000       9.97527000       0.27387893     -37.09303525      -0.96146180
O        9.45396200       7.24851000       9.12523400       7.82122031       7.91540634       7.92928301
H        8.25865000       7.76848000      13.46691000      -4.09898813       5.87517919     -24.95562303
H        7.68024000       9.03478800      12.43577000      -4.60366785      22.52382708      -6.08548611
H        7.03965000       7.40249000      12.29795000      -6.67245417      -9.05744151     -18.38239125
N        8.11081000       9.00167600       9.63191370      -9.98989264      38.92781409      84.89587950
H        7.78594000       9.65371870      10.43469900      17.82922018     -29.94542040     -37.75262183
C        8.10556000       9.49302600       8.33627000     -54.84759867       6.13497288     -82.89673728
H        8.33176000       8.63854000       7.66372000     -12.28755527      -1.34303963       6.95080540
C        6.67895000      10.13060100       7.88931000      53.56646490      47.14349467      22.22105243
C        9.22023700      10.39819600       7.83282000      -4.58714856     -29.17586322       8.40921935
O        9.47377200      10.44162800       6.63440000      -1.15299550      13.42506364     -23.22086055
H        5.83662000       9.56088900       8.22172000     -13.37067086     -14.62490449      -2.77887880
H        6.60832000      11.16914000       8.36939000      -0.22010591     -26.18568209       0.33099017
H        6.70613000      10.45294400       6.83761000      -2.98034540     -19.42414936      -1.32135361
N       10.00668500      10.84573000       8.78209800      31.84051717      65.68373165       2.12817992
H        9.84890800      10.74778000       9.75061800     -21.64631385     -10.91558911      37.16484795
C       11.22796000      11.63380000       8.58666100      31.16125912      -2.01441724     -39.99031019
H       11.32376000      12.16655000       7.55874000     -17.19226763     -29.15109614      26.56015093
C       11.51472000      12.73850000       9.59476060      -4.49906543       7.81397979       0.47817776
C       12.30587000      10.48744800       8.59546600      39.23106276      47.38500338     -25.89037311
O       13.24988000      10.47475900       9.37531200       2.40109187     -12.81382620      31.17050234
H       10.65711200      13.39825000       9.67132100     -11.34869314      11.99911946     -12.93481756
H       11.47313000      12.33510000      10.59923000      21.28488031      -4.22817988      11.61304919
H       12.41236000      13.39910000       9.33172300     -21.34140615     -29.02678670      11.31629448
N       12.30567000       9.77293800       7.45844000     -28.50845546       6.97616500     -21.24079727
H       11.49247000       9.94240400       6.88604000      -9.84914687      -0.84739100     -12.26361770
C       13.07576000       8.58394000       7.19968000      35.40756994      47.68718552      10.25255410
H       12.85509000       8.02307000       8.04963000      16.47935479     -40.01436626      38.61283365
H       12.69360000       8.04554000       6.39154000     -16.51170606     -14.56257201     -39.04027325
H       14.16338000       8.85135900       7.02252000     -21.16282243     -13.08768617      10.22792922
42
Lattice="20.0 0.0 0.0 0.0 20.0 0.0 0.0 0.0 20.0" Properties=species:S:1:pos:R:3:dft_forces:R:3 dft_energy=10.81968763365876 energy=-620662.2229652704 pbc="T T T"
H        7.92618000      11.33445000      13.13544000      10.42845965      -2.09828167     -21.93297212
H        7.82996000      11.70447000      11.39048000     -28.07260216      -0.82899463     -23.24953823
H        9.22989400      12.12426000      12.17381000       5.01822620     -21.27397806       6.18451890
C        8.46534000      11.30715000      12.13479000      13.21910578      11.88903036      44.63076132
O        8.28791000       9.26911500      10.96208000     -27.07717865     -46.57302220     -31.78754642
C        8.90440000       9.87827700      11.78917000      56.62691820      59.98350999      40.44559795
N       10.11364060       9.50718600      12.40080000     -51.73026403     -55.50457819     -49.14749551
H       10.52532200      10.15415400      12.96591000      24.81413069      55.30762654      42.19469927
C       10.76747800       8.17944000      12.51962000       2.35818201       9.98519993       5.23788298
H       11.77036000       8.42834000      12.97463000     -18.52530562      -8.71249172      -6.63603826
C        9.96406400       7.23844000      13.44911000     -26.27313715      31.75590617     -10.79393414
C       11.18588300       7.56110000      11.17549000      13.54783254       2.76043976     -14.69043653
O       12.26549000       6.94749000      11.16926000     -23.88352820       7.19351098      -8.68499907
H        8.91717000       7.27369000      13.07823000       6.47009879     -10.00243024      -3.95035007
H       10.33127400       6.21426000      13.40843000       3.44642877      -1.45994264      10.72534472
H        9.82386400       7.73573000      14.44087000      16.11922479     -17.06783969      -5.52502712
N       10.42591500       7.84612000      10.02674900      77.30376065     -25.19085109      46.70432330
H        9.56018800       8.27281000      10.16234500     -48.48411684      24.16035074       8.03531932
C       11.06428900       7.73681000       8.75445000      -8.18911225     -25.51744480     -25.81310928
H       12.13412000       7.49374000       8.97091900     -16.84043282      -5.79453803      -7.98816706
C       10.27248400       6.62011000       7.94001000       6.28938202     -29.07015873     -57.51379315
C       11.12966600       9.10866000       8.03134000      39.74417988       8.79352393       2.37045890
O       12.23134000       9.64241510       7.77764000     -23.49140244     -11.31701734      -3.07300274
H       10.93089100       5.82065000       7.37119000     -15.80874745      25.65715960      39.82393226
H        9.44395100       6.10409000       8.52000000      27.57500891      11.21758164      -5.93800937
H        9.75585500       6.95046000       6.97538000       7.19803779      12.39112672      27.48293223
N        9.93549600       9.70751270       7.84062000      -4.01619022     -24.77028465      -6.26408168
H        9.26583400       9.19740100       8.36567000     -38.68038025       0.86533944       2.40768063
C        9.65191400      10.85741000       7.04652000       9.78669589      41.27701359     -26.35845917
H       10.51728300      10.91191000       6.34024000      -6.80569872      -0.33780171       4.59738720
C        8.33490000      11.01659000       6.24183000      20.68857423     -15.34611252      51.40675139
C        9.78779600      12.16007000       7.85131000      24.95503051      57.42207199      36.91172597
O        9.25449000      13.26326000       7.63133000      -3.10534216     -32.96155365     -12.41850086
H        8.43028000      11.81284000       5.55913000       6.79832785      30.25020960     -16.22753634
H        8.13978000      10.15692100       5.66956000     -15.74688899     -34.44189062     -13.10451357
H        7.59844000      11.29084000       6.99979000     -14.81806405      -5.75031279      -8.44373922
N       10.70225300      12.05604000       8.89048200      -5.06781962     -61.47546024     -37.44913616
H       11.27247000      11.18552000       8.75201700      -8.88621682      21.34223567      10.86363748
C       11.45993000      13.08614000       9.48826800     -27.66957414      76.23581342     -15.83552908
H       10.96248900      14.17935000       9.40205100      14.17743791     -57.46319246       7.93429568
H       11.62647000      12.79456000      10.49512100       7.39027303       4.22562022      30.85623292
H       12.40156000      13.20645000       8.97829000      19.21665096       0.24474146      -5.98780425
42
Lattice="20.0 0.0 0.0 0.0 20.0 0.0 0.0 0.0 20.0" Properties=species:S:1:pos:R:3:dft_forces:R:3 dft_energy=18.24252338812221 energy=-620654.8001295159 pbc="T T T"
H        9.75265780      10.31950780      15.52905500       3.94553886       8.72072766      11.79337490
H        9.39050000      11.79431500      14.45478500      -9.65711308     -13.61786770      13.89634927
H       10.81463500      10.98006100      14.22459500      15.20165761     -18.78838184      -3.58579991
C        9.79753500      10.76468100      14.53840500      -4.11354027      18.21719835      -8.57635570
O        7.72884500      10.21897600      13.52730500      17.11085621     -21.45362830       9.92315187
C        8.93751100       9.88712400      13.66354500     -63.05936866      56.47807869     -18.64937806
N        9.52137100       8.95171500      12.93826500       6.41263679     -65.20841692     -32.10572644
H       10.50024900       9.12829500      12.89505500      24.12029680     -11.88156468      -5.37457596
C        8.97942900       7.82779500      11.98992500     -12.27890457      -1.45382789      30.34453783
H        9.79465500       7.06481500      11.88432500      -5.42209559      22.07316094      -1.75777572
C        7.79078500       6.97576500      12.67551500      -6.41021933       8.28886791      -0.59883494
C        8.68328400       8.39916500      10.52399000      -3.42028705     -10.41954824      67.60667658
O        9.18369100       7.81259500       9.59245600      -2.61167135       2.71768395     -27.68580902
H        7.33818500       6.21074500      11.97570500       9.65266923      23.80650138       3.70782224
H        8.12662500       6.32581500      13.52268500       8.13234941      15.69439225      -8.82550784
H        6.98090500       7.63576500      13.10090500      15.08528786     -10.06671801     -14.44667627
N        7.86054500       9.51252300      10.56209500      16.22090019      -2.98219405      56.03890731
H        8.01395500      10.07941200      11.47595500     -16.39640283     -30.93148220     -23.68373248
C        7.96836500      10.41858760       9.50889100     -45.22291980      18.57661734     -71.59844338
H        8.03034500       9.86889900       8.55119500      -6.61246806      -5.82796767       5.46581127
C        6.69058500      11.40777400       9.38336700      34.45231887     -55.34057031      66.88653507
C        9.25226700      11.11305100       9.59653700      58.35812560      52.04832554      97.52389331
O        9.75003410      11.52630500      10.73529400     -30.77908760     -27.09862765     -66.90063690
H        7.01583500      12.33803500       9.02855700       9.95359523      38.40960135      -8.97543758
H        5.99545500      10.97655100       8.67570500     -14.37533759      -5.28861403       6.14451235
H        6.42383500      11.42752500      10.51093900     -12.81655177      10.64665886     -44.06917655
N        9.88596300      11.25586300       8.45041500      16.10950756     -14.93739637     -53.37970449
H        9.41835500      10.83125800       7.60877500      19.42403086      13.61182405      16.55140449
C       11.28513500      11.64574500       8.24449500     -12.17035600      36.06561598      17.61449311
H       11.43859500      12.59149500       8.84075500       0.94921453     -17.42856222      -5.16206489
C       12.31560500      10.54229300       8.52754500     -44.07427217     -17.97284557     -13.38880178
C       11.43408500      11.98315500       6.72911500      25.03478290      -4.08600022      41.68170065
O       10.63968800      11.54648500       5.93189500     -17.43744993      -1.74341318     -34.11529691
H       13.29474500      10.83576100       8.26422500      28.76335498      10.95610522      -8.87660624
H       12.33577500      10.09072900       9.51138300      -8.58497085       2.73462985      11.51361349
H       11.95692500       9.79114500       7.79872500      13.96910999      -9.88773138       6.85062313
N       12.62542500      12.59417500       6.49587500      12.42691456      15.92511720     -35.84697832
H       13.05640500      13.03335500       7.31228500      -0.95750025      -2.89430052      -9.08191234
C       13.02549500      13.15315500       5.07916500      24.90217827       7.11278688     104.12201068
H       13.28760500      12.33304500       4.47094500      -9.13876999     -21.20394290     -28.03847335
H       12.17925500      13.78925500       4.93181500      -5.83042068      12.19618961     -33.00646621
H       14.00454500      13.69260500       5.29945500     -28.85590567      -3.76657593      -9.93507325
42
Lattice="20.0 0.0 0.0 0.0 20.0 0.0 0.0 0.0 20.0" Properties=species:S:1:pos:R:3:dft_forces:R:3 dft_energy=1.315876813372597 energy=-620671.7267760907 pbc="T T T"
H        7.20569500      11.97087500      12.26683500     -20.03645332      -2.83079487       2.79979454
H        8.63036500      12.25257500      11.52539500      22.19675936      20.32417812      -3.85758608
H        8.47288500      12.21354500      13.41800500      14.55569885       3.50915230      -3.01439126
C        8.25881500      11.80115500      12.42983500     -11.06448788      -4.75276807      10.11228233
O        8.04421500       9.89303890      11.10955200      12.00350406      -6.71090833      17.43614640
C        8.48213500      10.35515000      12.18765500     -20.81833479     -35.58342809      -7.11708853
N        9.02768100       9.56102600      13.18258500      -2.13736389      -4.64685027     -42.45327238
H        9.36550600      10.01990400      13.96647500      17.19771876      29.89090912      39.63906790
C        9.48923600       8.14843500      13.10136500     -19.24959473      11.05525651       9.31398823
H       10.19871200       7.95018500      13.93004500      -6.12845522      10.77358721      -4.61490192
C        8.23880500       7.27570500      13.32907500      51.63925388     -11.50211872      -4.37614248
C       10.38986600       7.95432500      11.88446500      51.70371940     -19.60095553     -26.72830640
O       11.60855500       7.79635500      12.04196500      -3.25105320       0.96749952      16.56479531
H        7.63880500       7.34010500      12.46958500     -33.72269713       3.32593512     -21.77417837
H        8.53517500       6.25017500      13.47741500       6.13442776     -18.75923015      -4.88944920
H        7.80055500       7.54047500      14.26080500     -19.55296190      15.79523813      15.43250106
N        9.87477250       7.93474500      10.62595200       1.06719000     -10.42131393      34.13010976
H        8.92062500       8.17514500      10.73830000     -38.55690033      11.61538369     -30.46327764
C       10.60108300       7.62659500       9.40035700     -18.29114409     -11.38764501      19.64195750
H       11.53445500       7.23277500       9.71586900      22.68036928     -22.58189345      10.41208257
C        9.78160500       6.69195500       8.50569500      -9.87384285     -15.68751909     -10.15055874
C       11.01545500       8.90588600       8.71879500      30.04970287      14.92495357      -9.13091325
O       12.21689500       9.26953800       8.55523500     -60.88744935     -17.52656403       2.05800257
H       10.34347000       6.48812500       7.59101500       1.90040569       4.40082661      -6.83855955
H        9.50309700       5.66351500       8.86242500      12.20721037      19.17505647      12.13089457
H        8.81937500       7.14762500       8.21308500       6.14018700       2.65483007       0.13749761
N        9.88933730       9.55141600       8.26710500      25.13005915      70.83090074     -26.31224308
H        9.08965100       9.63324100       8.86713500     -16.45328418     -15.73266865      17.25922172
C       10.13060100      10.92456500       7.71467500      28.44327892       9.03800706     -30.10326613
H       11.16296500      10.86084500       7.24108500     -27.23241731      -3.08332434       3.46732081
C        9.07004300      11.46395500       6.71678500      36.07699225      26.67059554     -18.71171053
C       10.22867200      12.00130500       8.77322500      -6.18762367     -17.34466223      59.18254957
O        9.21599300      12.26027500       9.46924100      29.12028541      10.50656485     -18.58917863
H        9.64008400      11.69610500       5.73919500     -28.02496404     -12.56698487      24.23560002
H        8.26930500      10.76346700       6.61083500     -14.75987917     -12.72388258     -11.76460242
H        8.64207500      12.44044500       7.07913500       6.20542279     -20.58358075      -5.16832184
N       11.50003500      12.44276500       9.03519500      -5.29844977       0.76155113       3.71699436
H       12.24095500      12.00094500       8.51529500       3.17082680      -5.21617327      -5.51551134
C       11.91980500      13.24105500      10.19034460      10.54802898      26.53206577     -49.78918817
H       11.99408500      14.33648500       9.86238100      17.46743113     -26.78554326       9.85613853
H       11.10377500      13.28833500      10.82408400     -41.47076567      -5.95981389      40.78487146
H       12.79430500      12.79430500      10.69336200      -2.64038457       9.23601338      -6.94920561
42
Lattice="20.0 0.0 0.0 0.0 20.0 0.0 0.0 0.0 20.0" Properties=species:S:1:pos:R:3:dft_forces:R:3 dft_energy=14.269543307134882 energy=-620658.7731095969 pbc="T T T"
H       13.93142500       9.73357217      11.65246500      18.52246156      28.19074945       1.51261713
H       13.40914500      11.14930000      12.78325500      11.84188994      -0.41517574     -22.78216318
H       13.10889500      11.13025000      10.96607000      -8.02230771      38.29666818     -43.48673529
C       13.23821500      10.58797800      11.82899500      13.05095030     -70.93139112      66.73437747
O       10.91007500      10.32496100      12.26912500     -16.30527418       7.77182834      -1.46667360
C       12.01809500       9.78852110      12.17204500     -38.30863697      -5.83500674      -0.07945245
N       12.17457500       8.44684000      12.37548500      53.49003060     -28.14785144      13.14207896
H       13.19549500       8.14991000      12.32896500     -43.44075620      -0.21849191       3.07451958
C       11.08668500       7.42659000      12.75795500       8.78985034      68.73991885     -35.33552023
H       11.48854500       6.42926000      12.90334500      11.34619273      -0.50068618      -4.23735200
C       10.28291500       7.86801000      13.98088500     -52.06064983     -41.11786433     -12.16312733
C       10.25748400       7.34429000      11.40567500      15.38308540     -95.85122630      27.68983812
O       10.34705400       6.29783000      10.74200600      17.10611610       9.29503963      -5.24579897
H       10.62608500       7.38256000      14.89981500       0.71263080      -7.16898090      -1.03880028
H       10.22239800       8.91719200      14.22981500      -0.77427004      12.54909095     -11.99698641
H        9.19406200       7.44826000      13.70739500      43.19332236      21.48135796      26.01171998
N        9.29240100       8.18857000      11.22443800     -57.11206866      54.12959021     -19.88145166
H        9.17816500       8.91324900      11.91156500       3.32160977      11.20314800       9.53184377
C        8.15334500       8.05932000      10.28769540      10.48220067     -40.02929761     -10.23616516
H        8.38643500       7.23845000       9.48313800       2.92931810      35.14164965      31.29978890
C        6.89914500       7.49567000      11.00180900     -37.79030572       8.98182488     -55.52756773
C        7.78912500       9.34206000       9.50565700      21.68056116     -20.62102763      -2.14001835
O        6.91897500       9.15072100       8.63724500       9.05231034      37.24080824       8.59144111
H        7.00758500       6.46121000      11.30986200       6.45090134      -6.26686649       2.92820417
H        6.49330500       8.08909000      11.81431500       4.14833270       8.68272381       9.46081319
H        6.06857500       7.52282000      10.15795800      31.44744339      -4.44355872      36.04440398
N        8.56145600      10.45516200       9.77775800      -0.83999998      -5.87579540      24.15584764
H        9.34174300      10.33760700      10.50814300     -31.37669721       6.69235079     -29.91484668
C        8.15162500      11.88249000       9.41942400       6.04058540     -46.13882794      36.36080645
H        7.11408500      11.70767000       9.12108500      -9.03247297      11.74034489       2.56953175
C        8.35982500      12.74574000      10.66207200      56.88027719     -20.84061332       9.64937485
C        8.91792900      12.24536000       8.19771500     -63.13532895     -97.73245824     -16.98228067
O        9.62355570      13.17952000       8.05984500      47.66087790      66.01482847     -10.27497483
H        8.13199500      12.07124000      11.56314500      -1.46938731      33.97498959     -20.79830782
H        9.50173750      13.05341000      10.73287900     -43.76272831     -18.30678646      -2.47148253
H        7.87401500      13.70217000      10.56507700     -16.98808731       7.33091498       8.46271152
N        8.65175800      11.28773000       7.18107500      56.51623659      70.88399000      -3.11189536
H        8.03999500      10.52040900       7.19817500     -27.18442368     -25.84285349      13.18521398
C        9.17152600      11.78180000       5.91764500       6.78391791      -5.51452777      -6.38977760
H        8.63360200      12.73587000       5.75395500      11.70225809      -3.25885068     -15.92997581
H       10.27135600      11.96479000       6.00905500     -15.19395493       2.19027539      -3.04548639
H        9.03400700      11.05524000       5.10018500      -5.73610430       4.52583521       4.13176601
42
Lattice="20.0 0.0 0.0 0.0 20.0 0.0 0.0 0.0 20.0" Properties=species:S:1:pos:R:3:dft_forces:R:3 dft_energy=-26.559510112158023 energy=-620699.6021630162 pbc="T T T"
H       12.29874500      12.88820500       7.95460500      10.46620279       2.99671064      -1.78241246
H       12.82763500      11.59671500       9.02433900      29.59168955     -37.35694099       1.21726076
H       12.45345500      13.16091500       9.72413200       4.71655362       5.81894961       2.54106738
C       12.21898500      12.43757500       8.94740800     -49.15555371      34.69489410      -8.56906778
O       10.32964100      11.13864500       8.24467500     -14.75632409     -26.30098531     -30.43590349
C       10.75871100      11.98917500       9.00187100      34.85510988      -1.28531691      11.90490973
N       10.00733100      12.50375500       9.97509700       5.65784506      40.43054809      27.60901921
H       10.48436900      13.12976500      10.63345200     -10.17024205      -7.27373738      -6.01324680
C        8.62811500      12.15492500      10.21651000      -1.52707447     -28.67530740      19.36181689
H        8.27849500      12.68703500      11.10093500       5.66506188       2.11705251       8.63964805
C        7.70975500      12.48030500       9.11689200     -68.01752578     -21.49498578     -20.86976501
C        8.61073500      10.66643900      10.63346600      29.77051027      -8.35316753      64.42191384
O        9.19761500      10.34163000      11.72143500     -21.28132523      13.21341764     -46.27854274
H        6.60805500      12.08996500       9.29160700      44.84039277      12.02151649      -0.34831172
H        7.58085500      13.52856500       8.98631900       1.65136021      27.43636063      -3.87183011
H        8.03021500      12.05659500       8.17356500       4.42558185      -2.79556399     -10.42795009
N        7.98662500       9.75482800       9.88122270     -17.08123051      -3.87454383     -27.69991086
H        7.63153500      10.03152300       8.93082600       9.62727408      -7.40478962      29.02998628
C        8.06776500       8.32976500      10.16455500       8.60246187     -27.49110892      24.19282051
H        7.84431500       7.99367500      11.21907500      -0.33080530      28.43261367     -11.10365305
C        7.09230500       7.56083500       9.31373600      63.66349593     -35.33777179     -39.90427716
C        9.51336700       7.71917500      10.06210200     -53.94472584     -23.43523211      27.74008331
O        9.73097700       6.66297500      10.65082900       4.05246393      -5.16807299       2.84637799
H        7.11622500       6.47143500       9.53005000      10.23580965       9.65317879      -0.80329730
H        6.12431500       7.81499500       9.49245700     -70.03728750      28.01489130       9.88245800
H        7.35320500       7.68769500       8.22769500      -8.98492965      -2.45953745      12.65598047
N       10.35846820       8.39762500       9.35153300      33.59293657      48.95575799     -41.27274749
H       10.06707300       9.25878500       8.84632000       2.53466823     -10.46721007      10.64786759
C       11.75789500       8.10665500       9.24856800      28.22321922       8.18782057       0.01388201
H       11.97003500       7.18248500       9.78455180      -6.69340547     -15.03480567      -4.13675497
C       12.21383500       8.06042500       7.78164500       1.02876072     -40.57595103      16.22054468
C       12.65962500       9.07937200      10.06957700      46.75219843       7.18424406     -38.08205962
O       13.87568500       9.26112500       9.77826600     -35.92056855     -12.49232811       7.81900431
H       13.29165500       7.80492500       7.76037500      -7.64476964      12.80813807      -3.65582321
H       11.68968500       7.21214500       7.28227500       2.19494440      11.18227966       3.09457025
H       11.94946500       8.98813700       7.30778500       3.69765470      13.86281298     -11.43881452
N       12.08258500       9.72465900      11.06741500       6.79354033       8.21773068      26.51950447
H       11.10529200       9.63900700      11.24337500     -24.55188399      -5.63989188       3.65289619
C       12.78827500      10.58459900      11.98216500      18.05247945     -31.36520244      14.66803950
H       13.49843500      10.13394800      12.71772500      -9.40442956     -13.97136155     -12.34171105
H       13.39569500      11.28351500      11.49204500      19.55793902      29.84338949     -26.09182787
H       12.07621500      11.06633500      12.57829500     -30.74792136      23.18163612      20.44825055
42
Lattice="20.0 0.0 0.0 0.0 20.0 0.0 0.0 0.0 20.0" Properties=species:S:1:pos:R:3:dft_forces:R:3 dft_energy=-15.898833862273023 energy=-620688.9414867663 pbc="T T T"
H        9.78490800      10.71736000      13.69804000      -2.38411042      16.24815583       9.04922927
H        8.59416500       9.28167900      13.57819000      31.29066418      30.17922643     -11.08715746
H        8.65038500      10.41239700      12.24771000      14.02836139       9.33360044       2.55569062
C        9.33130200      10.01663300      13.02721000     -38.64245935     -77.49419465      -6.69365432
O       10.25523300       8.00070000      11.86675000      -6.25976817       3.42490866       5.50437208
C       10.43451500       9.09144100      12.41737000     -44.83032003      25.56579394      18.21411727
N       11.63604500       9.64657620      12.58540000      65.17393261       3.38474806      -9.08435350
H       11.77418500      10.67143000      12.71325000     -16.74278652     -24.72466107       2.38329275
C       12.78369500       9.10653200      11.77170000     -34.36107171     -17.20435492     -26.08033310
H       13.47217500       9.91875100      11.78201000      28.39255972       8.98989492       9.83089744
C       13.41088500       7.73492000      12.09829000     -16.73875742     -22.37747612     -12.35427235
C       12.28501500       9.32892700      10.28642200      -6.38437387      42.89374728       1.65780676
O       12.31399500      10.55121100       9.92554420      -0.10416005     -58.86756913      -1.27952213
H       12.69269500       6.84567000      12.21819000      11.49292290      31.70696452      -9.18050667
H       14.10198500       7.47178000      11.24349000      -9.61253233       5.52406725      19.08025423
H       13.96068500       7.72946000      13.03748000       7.76733709       6.45993125       3.70297548
N       11.72469500       8.31130000       9.55949000      24.09754426       8.07123752       5.18173636
H       11.62018500       7.39526000      10.00789700       0.34438691       9.93800027      -4.46555284
C       11.34638500       8.52943000       8.16047000     -24.67880049     -44.20995787      18.02783087
H       11.93943500       9.37444700       7.88220000       6.50749828      18.84324864     -15.25747243
C       11.71202500       7.24484000       7.27775000     -39.16647873      43.13229342      22.41729307
C        9.84093500       8.94868300       8.03924000       9.62536618      -0.61749557      -6.09897173
O        9.40716300       9.13082600       6.91006000     -12.34218506       8.28167479     -27.95670642
H       11.30108500       6.34611000       7.69954000      -1.27940362     -14.53863445      16.03188822
H       11.25325500       7.29028000       6.30196000      -1.14561633      11.04973428     -13.24837597
H       12.76116500       7.23391000       7.22239000      36.20544928      -8.44324151      -5.05114627
N        9.09270500       9.15931900       9.13806800       8.93777739     -13.09420383      41.72317663
H        9.50121200       8.88629100      10.04743800      -2.39545114       3.37652396     -10.60302613
C        7.67102500       9.57158022       9.19692800       8.52129930       0.34138642     -12.64330067
H        7.21379500       9.19273200       8.28212000       0.70224285       4.36115187     -11.27895424
C        6.91384500       8.90354300      10.33187100       5.98340780       5.32352496      38.76676879
C        7.65076500      11.15253000       9.20191600      -3.94953240     -45.78568960     -19.63164776
O        7.41086500      11.73742000      10.23963400       0.52053421      24.90916993       2.08861184
H        7.42917500       8.01088000      10.70534000       1.66574645      -5.18975900      -7.48061957
H        6.77537500       9.49638390      11.26935000       8.74247292       5.93664659     -16.07099415
H        5.89801500       8.62321500      10.08705200      -8.01027968      -3.55232287     -12.68430264
N        7.91936500      11.64797000       7.94082000     -11.53529950      13.83638686      56.72515702
H        8.32131500      10.96896000       7.32046000       8.38024542      -7.30766473     -17.09556935
C        8.15552500      13.06635000       7.80855000      32.91640409      13.07512487      -8.19227628
H        9.08003300      13.47344000       8.35475000     -18.12926927     -18.21944990     -13.59440414
H        8.27954500      13.24875000       6.72964000      -1.47051309       7.72451018       5.02916400
H        7.33755500      13.65389000       8.21374000     -11.13282844      -0.28481200      -0.85699447
42
Lattice="20.0 0.0 0.0 0.0 20.0 0.0 0.0 0.0 20.0" Properties=species:S:1:pos:R:3:dft_forces:R:3 dft_energy=12.30609839479439 energy=-620660.7365545093 pbc="T T T"
H        6.17647000      11.67794500      13.58969000     -43.17104383     -18.49176933      60.19882958
H        6.38995000      12.56231500      12.20173000     -13.30490180       2.04399554     -23.49436501
H        7.71959000      12.25017500      13.12527000       5.71574552     -11.48860940       6.08503580
C        6.79375000      11.75709500      12.78686000      61.20562936      19.88690279     -52.54366724
O        6.63558000      10.24859900      10.89576000      -4.18678685      -6.32835760     -47.88709974
C        7.05873000      10.45952700      11.99964000      -7.85794433      18.65956930      65.08766257
N        7.63775000       9.49501800      12.78749000      22.34370283     -20.01607084      28.47195660
H        8.11572000       9.68662200      13.70848000     -21.27931068       8.12110350     -32.81461018
C        8.01566000       8.16315500      12.29978000      19.65487431     -32.59609102       9.47961959
H        8.31472000       7.53372500      13.17217000      -6.15629153      15.07485961       0.86595565
C        6.87407000       7.31584500      11.64412000     -16.60247920       1.70967544      26.06042463
C        9.40820200       8.24442500      11.61001000       0.37442144      -7.55464826     -57.72058054
O       10.48352400       8.34776500      12.19376000     -16.86721446      -0.91606456      -1.33967415
H        6.42847000       7.87306500      10.80741400      -4.86954073      -5.92326763       4.39618130
H        7.10216000       6.25503500      11.33143000       9.92292671      24.98062712       6.31084288
H        6.12010000       7.19043500      12.50982000      14.17909695       7.23781918     -31.74962552
N        9.28571200       8.10002500      10.19574700      77.73202977      18.22667857      61.81698531
H        8.40558000       8.26822500       9.85327300     -62.00410123       7.19153199     -26.95843884
C       10.35544800       7.91917500       9.23623400      46.47039877     -65.81147767       1.37609006
H       11.44045000       7.85506500       9.70032400     -50.43538394       3.28278825       3.91581835
C       10.15482800       6.39690500       8.65106000      -3.22882207      12.61023839      -6.34016047
C       10.67528000       8.97616500       8.16991000     -36.17226850      -4.30525410      42.09776398
O       11.28878000       8.69759500       7.16122000       4.55106446       4.55706070     -14.60938062
H        9.28631700       5.91791500       9.19150400      27.82481281       5.81974358       2.61059297
H        9.76464300       6.35875500       7.60287000      17.28458131       8.52000762       7.48892661
H       11.13944000       5.83624500       8.73464000     -30.40556677       8.05765710      -2.99815638
N       10.21460500      10.21279100       8.54821000      15.21753698      37.52746651     -28.59792507
H        9.79885300      10.47067600       9.43739300      -2.93511289     -18.28391542       2.46597215
C       10.22744700      11.31226500       7.54197000      -1.50242589       8.80275530      24.45352667
H       10.65130000      10.78228400       6.70737000       9.49942141       2.51671505     -22.29310213
C        8.77934300      11.71398500       7.23224000       6.67501383     -20.80340344      36.90236425
C       11.12910000      12.57261500       7.90177000      -2.20103545     -33.27380853      28.45856578
O       10.84275000      13.66989500       7.43801000      16.99259042      -7.41935362       6.82969554
H        8.64834600      12.14072500       6.29152000       0.98825528      37.61421056     -34.72167573
H        8.24942000      10.80031500       7.10143000     -13.00473421     -30.54658510      -0.22759648
H        8.21942000      12.19870500       8.05011000      10.93531983       9.71096075      -5.31781312
N       12.14209000      12.27683500       8.86507200     -29.31569653      37.30942136     -67.40723637
H       12.10577000      11.36788500       9.23108600       2.37266305     -32.30966975      16.33241132
C       12.82109000      13.37307500       9.49584200       7.98981424     -43.43494957      54.11406634
H       13.87990000      13.21555500       9.84239180     -17.22165633      -5.71838814     -14.74103723
H       12.74025000      14.16375500       8.84655100       1.17003620      51.66188791     -35.81557507
H       12.22270000      13.58029500      10.38460600       3.62222767      14.09815954      11.75847582
42
Lattice="20.0 0.0 0.0 0.0 20.0 0.0 0.0 0.0 20.0" Properties=species:S:1:pos:R:3:dft_forces:R:3 dft_energy=9.960104356287047 energy=-620663.0825485478 pbc="T T T"
H       14.93450500       9.77033800      10.11821660     -10.25865699       3.40819976      -9.32468903
H       14.11293500      11.01049400       9.17802000      -9.94762269      19.78119829      10.83426064
H       13.96135500       9.40916900       8.67792000      -1.14005263     -14.47890904      -9.17087239
C       13.98539500      10.01345500       9.57279000      25.71344843     -11.78323106      -4.02469873
O       12.91159500      10.22592840      11.68625000     -20.39551680     -28.61380445     -38.93693881
C       12.91907500       9.65712200      10.55687300       8.56138880       5.71721496      21.81446932
N       12.16620500       8.53617000      10.20312229       9.96728231      29.33572350      64.25885399
H       12.20904500       8.08709000       9.33525300      14.87838197      -2.32673136     -40.55805711
C       11.61245500       7.62267000      11.20205100     -17.48520655     -30.73393803       6.15235724
H       11.36472500       6.68516000      10.61529700       2.56314445      18.57424728      13.88414349
C       12.58786500       7.21057000      12.36824000      19.50994538      42.52283352     -34.55944540
C       10.20664100       8.08992000      11.68741000       2.59791317     -71.01540960       1.24188564
O        9.32553200       7.24166000      11.83884000      -5.88131763      -7.84351069      -7.40231292
H       12.95655500       8.23218000      12.79091000      -2.89718014     -48.27057480      -5.13376643
H       12.15320500       6.53528000      13.06018000     -28.60408722      -2.07062311      26.83958053
H       13.36114500       6.50069000      11.97678000       4.21609260      26.44982483      -3.44548074
N       10.02323600       9.36458300      11.88975000     -13.22040931      55.34768048       6.60214646
H       10.85358300       9.85117200      12.20472000       8.13840490      17.22426339      -6.96845047
C        8.68268500       9.99775800      12.07455000      49.58879994     -25.78206155      11.95527342
H        7.98978500       9.15197000      12.17946000      -5.76078844       3.34974233     -14.49301087
C        8.68544500      10.69872300      13.42146000      62.75149838     -10.81470768     -10.46794478
C        8.40373500      10.93706700      10.94572600     -64.63036027      51.92223856      -9.35631742
O        7.36978500      11.64909000      11.02468800      13.40266661     -12.88113579       3.18754755
H        8.78503500       9.92980100      14.16091000      -5.88606960     -12.13231660      17.73311441
H        9.57988100      11.35011000      13.57328000      -9.96314656      -2.68442021      -8.48927984
H        7.83475500      11.25838500      13.51676000     -54.68442031      34.33630463      11.88357923
N        9.25148700      11.13125900       9.92069100       8.89419206     -20.53843118     -17.53035612
H        9.92347400      10.38988700       9.78056600      11.11440126      -2.04012049      -0.84413218
C        9.15023000      12.14094000       8.83997000       2.22910876      -4.97986684      34.32552087
H        8.62747500      12.95092000       9.26089300     -16.38502656      28.95829208      26.90369055
C       10.58704900      12.63251000       8.61512000     -47.01681518      -2.23209503     -64.83086700
C        8.22092500      11.82789000       7.66511000     -25.14463499      16.62452072      11.49426198
O        8.47447500      11.11489700       6.74123000      29.75664544     -43.93491288     -44.53347052
H       10.61975500      12.94761000       7.55670000       4.91658634       5.14068699       1.51778385
H       10.76703600      13.49931000       9.20605000      16.48314688       6.83803814      21.21176409
H       11.20045500      11.77265000       8.63185000      32.78202191     -14.90729666      13.46298454
N        7.01220500      12.50985000       7.65724000     -33.57231708       0.69041627      58.19945035
H        6.61055500      12.75047000       8.62112000      30.00810838      -5.18518479     -31.44898392
C        5.84040500      12.05375000       6.83197000      66.00392622      20.69319584     -35.28089044
H        5.78680500      10.95439500       6.75708000      -3.05877056       8.67004401      -3.31538837
H        5.06549500      12.54272000       7.32043000     -48.26690121       7.12678206      21.40563467
H        5.90556500      12.61091000       5.83909000       0.12203537     -27.46243125      15.20722724
42
Lattice="20.0 0.0 0.0 0.0 20.0 0.0 0.0 0.0 20.0" Properties=species:S:1:pos:R:3:dft_forces:R:3 dft_energy=23.185703361406922 energy=-620649.8569495426 pbc="T T T"
H       15.29092000       9.80090300      11.23956000      -8.47190733       5.53361857     -19.18394418
H       14.50631000       8.27448500      10.73862000     -14.23337124      38.16750013       4.79564239
H       13.68950000       9.56564500      11.75836000     -17.61982573      -4.69406179      14.47784251
C       14.30434000       9.40808500      10.89265000      24.59466350     -55.60293551      -8.01595596
O       13.63579000       9.58185500       8.52690000      -7.54301129     -10.70599321      -4.18818519
C       13.67285000      10.03525400       9.64998000      23.52564975      51.24523207      21.24091578
N       13.33120000      11.37896600       9.97573800      -4.07240795     -25.95590516     -28.82082884
H       13.45541000      11.57819500      10.93773000       2.65846810      13.43549189      21.00509520
C       13.05060000      12.44993500       9.01851100      -4.97940468      67.33720121      39.54296213
H       13.05808000      13.54803500       9.66512900      -2.36881171     -64.38553348     -29.82111097
C       14.16896000      12.58231500       7.97537000     -19.13144744      23.89940758      38.02660031
C       11.58972000      12.44716500       8.46149000      32.32886721      36.69332531     -41.56722695
O       11.33866000      13.05539500       7.38160000      -2.29784038     -33.77780094      44.85437610
H       13.83188000      13.26964500       7.19430000       9.37057331      -0.21239375      -1.17832666
H       15.07460000      12.85674500       8.55390000      -4.73479120       5.22077118     -15.12154972
H       14.25719000      11.58985500       7.67186000      14.14674569     -38.90411353     -32.52072324
N       10.73368900      11.85536500       9.31168000      -9.61387141       3.32520040      -4.43177954
H       11.04813200      11.84636500      10.27092900      -1.06992859     -13.57200711       9.46863438
C        9.31439100      11.89097500       9.09972400     -14.89046926      18.30441641     -61.18429886
H        9.05534000      12.94244500       8.75289000      -3.96877725     -16.40564605      15.52540726
C        8.97660000      10.96791300       7.79815000      14.76770036     -12.42999563      31.58881722
C        8.61731000      11.40795100      10.32275800     -46.01582204     -10.31256391       5.51868722
O        9.21710300      11.20382500      11.39652000      -8.89352844       9.61589781     -18.77676856
H        8.20102000      11.28347700       7.05652000      -0.85868076      -2.08685800      25.51874833
H        9.90336000      11.09245400       7.23306000       1.69218442     -12.30236812      -4.46308798
H        8.85912000       9.90439100       8.22720000       1.08745871      29.45422630     -26.40834885
N        7.23447000      11.09298000      10.15856800      62.12355205      -1.58940695      78.86112444
H        6.76148000      11.12465200       9.29004500      -6.30353126       0.27196155     -26.20274649
C        6.68697000      10.17549300      11.19203000     -39.90569920     -15.59567942     -45.28620030
H        6.90306000      10.32764800      12.20819000      28.11490766      33.38591218      28.65373989
C        5.15272000      10.11099400      11.20767000      22.30981103     -10.13854255     -51.35401764
C        7.21215000       8.72542500      10.98273000      17.95281860      37.24898494      15.77011554
O        6.64996000       7.83081500      10.40958200     -27.23360234     -29.86993412     -22.44265266
H        4.97366000       9.28197500      11.90087000     -19.03036456       0.77276979      -7.31723976
H        4.70908000      11.04211600      11.50566000      -6.47107052      13.28807441      10.39268366
H        4.85759000       9.92279200      10.11726000      -5.71669355      -7.21669013      33.43734239
N        8.39494000       8.59282500      11.61038000      12.66060208      21.70307669      46.34407479
H        8.89709000       9.44760500      12.00175000     -24.60331421     -26.60956660     -16.79101716
C        8.99269000       7.33137500      11.86890000      46.15115223      -8.63134100      21.48799411
H        9.37378200       7.17176500      12.94348000      15.16290719      29.75557892     -29.78935222
H        8.41638000       6.45196500      11.98362000     -44.13696015     -17.47643735     -26.59463525
H        9.69698700       7.21785500      11.03362000      15.51675655     -20.18292278      14.94900964
42
Lattice="20.0 0.0 0.0 0.0 20.0 0.0 0.0 0.0 20.0" Properties=species:S:1:pos:R:3:dft_forces:R:3 dft_energy=17.323022777796723 energy=-620655.7196301263 pbc="T T T"
H       11.87904000      11.36521000      14.13292500      -2.39944468      15.95640194     -18.65542170
H       13.34350000      10.73118000      14.87116500       0.75027085      -1.05621901     -14.67384614
H       11.80112000      10.08771100      15.20697500       0.74263927     -19.99497734     -16.76281349
C       12.40271000      10.45012500      14.35085500      15.97595490     -12.47455269      11.33327593
O       12.01467000       8.38149000      13.03080500      -0.18080802       9.24583727      15.22429164
C       12.60137000       9.46249800      13.12867500     -22.33398560     -24.35872443      16.27055286
N       13.44326000       9.81875340      12.12324500      20.94430327      35.39820821     -20.84274637
H       13.97274000      10.69029400      12.20871500      -7.18141185      -4.37790817       4.95513531
C       13.86710000       9.05436700      10.90571500       5.06909945     -49.56118879      51.45047892
H       14.32760000       9.82710900      10.28618000      14.16226956      -5.96604714      -2.83250131
C       14.83816000       7.76661000      11.31898500     -63.66254790      31.77510363     -76.32895662
C       12.74442000       8.46644000      10.00684700      -4.40390768       5.02607108     -18.20179298
O       12.97366000       7.64735000       9.10990100      12.95200047      -2.74469074       9.65346319
H       14.69813000       7.16761000      10.38653700      27.60783418       7.23208364       4.24453327
H       15.79780000       8.02471000      11.63575500      40.61920455      12.15317310       3.15672497
H       14.38807000       7.10508000      11.99650500     -25.72660224      -9.23043190      38.51945345
N       11.53150000       9.03672200      10.13187000      27.73143260     -25.72648374     -21.76102456
H       11.55738000       9.80707060      10.70704100     -18.78376023      49.61143397      41.12450049
C       10.48388500       8.78589400       9.20015000     -31.65600831     -22.13821897       3.00931934
H       10.87799700       8.78242500       8.15305500      -6.05132175      12.30959679       9.36409121
C       10.01678400       7.30473000       9.42187100     -17.04579817      22.23290271     -46.23765928
C        9.28465700       9.72962080       9.54935600      39.43405805     -13.04431415      60.24611220
O        9.01890000       9.88049600      10.78487500      -6.99572981       2.54868711     -64.43020904
H        9.60444500       6.88367000       8.48067500       1.43224853       4.45771981       7.40874762
H       10.90533800       6.80924000       9.63201400      36.55218847     -31.75258809       7.72888293
H        9.33012600       7.13900000      10.21081100     -19.34724104       5.56966712      23.65825438
N        8.71626000      10.27729600       8.48098500     -15.81052499      34.06114113     -16.05961788
H        9.20972000      10.23074300       7.58872500      -5.06277140      -7.55092728       2.71094114
C        7.50340000      11.12908000       8.50550500      -3.10512885     -55.95062273      11.39425747
H        6.97241000      10.66108300       9.38558400      -5.69482978       5.76533895     -21.07584138
C        7.70455000      12.59171000       8.88865000      30.76048266     -18.18034398     -13.53361221
C        6.83547000      10.83751000       7.06486500       3.08535074      66.11946644      99.66701644
O        7.29815000      10.17047700       6.22083500      55.53918101     -78.04013705     -69.00323207
H        6.88324000      12.95804000       9.47402300      -8.15017223       7.30895641      12.96681332
H        8.68071000      12.61608000       9.40321900     -10.89254032       7.11890162       9.07544209
H        7.82304000      13.19076000       8.00631500      -0.30376297      14.56316453     -15.46923693
N        5.84314000      11.65626000       6.79818500     -86.27063048      64.92199566      67.04295876
H        5.25188000      12.10160000       7.59097500      39.46048418     -22.96773857     -32.41466323
C        5.13115000      11.57101000       5.57991500     -43.90979028     -30.03192745     -19.17742653
H        5.77727000      11.89650000       4.79302500       8.88067089       6.24374660     -22.65038807
H        4.88588000      10.45414000       5.37726500      -0.94084468      37.24009723       0.39609324
H        4.20220000      12.23433000       5.60542500      24.20976641     -21.71160889      -0.49022357
42
Lattice="20.0 0.0 0.0 0.0 20.0 0.0 0.0 0.0 20.0" Properties=species:S:1:pos:R:3:dft_forces:R:3 dft_energy=14.299501973669976 energy=-620658.7431509304 pbc="T T T"
H        5.55899500      14.08744500       7.54428000     -10.36097231      19.66909464     -17.15410973
H        6.81003500      14.36834500       6.12722000      -5.25915424       0.96407597      26.65329413
H        7.11698500      14.57916500       8.00034000      15.87783458      15.82213827      -2.97764354
C        6.59686500      14.08516500       7.19272000     -22.10302364     -56.47179804       7.92147368
O        8.06777500      12.20692500       7.08208000      34.47601943     -24.24472473      -0.52637166
C        6.97314500      12.56746500       7.43761000     -10.54544562      53.22991695     -19.19164687
N        6.04396500      11.77183500       8.04310000      51.25234224      -6.43418060     -21.24150829
H        5.17590500      12.12381500       8.26602000     -49.62873538      30.28576044      12.10316491
C        6.40027500      10.64228100       8.81952000      37.80144499     -62.31137899     -10.63466637
H        5.47224500      10.11212700       8.89424000     -18.63314317     -10.44185047      22.99357218
C        7.31924500       9.50582600       8.09378000     -69.95232099      26.21317474       8.52992630
C        7.02699500      11.01455300      10.16760300      37.81021419     -34.86838220     -44.88103923
O        6.58844500      11.92686500      10.80590500     -19.20480068      37.03117679      45.83984538
H        8.23571500       9.98598000       7.89426000      27.88110164       5.53953186     -24.03805585
H        7.44288500       8.66910500       8.78484000      -5.38275266      -3.63809519      -3.41421970
H        6.65458500       9.25408500       7.23866000      24.85702870      -5.48282827      -1.05966388
N        8.17938500      10.30211232      10.43877500      17.61508562       8.87480500      52.69238826
H        8.76862200       9.79127100       9.73316800     -23.22998526      12.26527674      22.90208802
C        8.98258000      10.56154400      11.75982000     -34.04383972       0.32700136     -51.66141390
H        9.07864000      11.64597500      11.89037000      15.24028952       3.83488094     -17.51720231
C        8.30446500      10.22264040      13.06301000     -37.59833119      28.13256458       9.99548597
C       10.30600500       9.87316000      11.45071700     -18.63361718      54.58523347      12.15945374
O       10.45243500       9.04352500      10.58297953      -1.67119758     -38.49883396     -27.09329503
H        7.70055500      11.12150300      13.40966000      14.43518150     -16.83948480      -9.12259435
H        7.54658500       9.46472300      12.98082000      -2.90338969     -22.33457811      -0.56732386
H        9.00734900      10.02891900      13.85686000      10.75312177      -9.59244610       8.83798618
N       11.33768500      10.51569700      12.01784000      42.67973123     -10.31783729      35.16226914
H       11.21338500      11.00780400      12.91421000      -3.03149121      -4.36582088     -11.09520380
C       12.67578500       9.86472500      11.83574000       2.00024430      31.39613167     -12.02590109
H       12.66402500       9.77152400      10.75886800      11.01871025     -16.74622310     -12.07744981
C       13.76863500      10.85441300      12.31190000     -25.67398700      27.33966235      24.28975580
C       12.65343500       8.53979500      12.63216000      -4.80144902      32.30054504      18.13069130
O       12.63550500       8.54915500      13.87278000       6.95117276       3.53673975     -10.63876657
H       14.82409500      10.85563800      11.90528000     -27.95078128     -12.55691213       6.99524395
H       13.35894500      11.94339500      12.24677000      15.58288112     -37.11661731      -4.33765277
H       13.68727500      10.59143300      13.39214000      24.17279354      13.09740340      -1.32620038
N       12.52755500       7.43198500      11.91371000     -23.25629289     -15.26138302     -35.35270314
H       12.16858500       7.48494500      10.94910100       8.98940906      12.12568045      11.33710357
C       12.20462500       6.20823500      12.56760000      12.12319189     -16.62357270      30.62953706
H       12.89349500       6.13240500      13.42041000       1.66479843      -8.32416989      -1.68770502
H       11.20870500       6.06447500      13.03435000      -2.03822445      13.78306060     -10.76807683
H       12.37952500       5.42083500      11.86008000       2.72040951     -17.88278345      -6.78268548
42
Lattice="20.0 0.0 0.0 0.0 20.0 0.0 0.0 0.0 20.0" Properties=species:S:1:pos:R:3:dft_forces:R:3 dft_energy=1.1568654297152534 energy=-620671.8857874743 pbc="T T T"
H        5.73129500      11.30774500       8.97396000     -14.01651111      -8.35291867     -17.33387848
H        7.08645500      12.10967500       9.78227900     -23.36887054       3.46645574      -0.16254436
H        5.49992500      11.97354500      10.67264300      -9.96665424      14.28006134      -7.74382613
C        6.14260500      11.50219500       9.93379900      47.93402685      14.63805830      35.30565753
O        7.39302500       9.47671600       9.89903800       5.83545705      17.59422913      21.53314368
C        6.78291500      10.32214500      10.60277900      -8.25412289     -37.98974593     -75.23730884
N        6.58913500      10.16190200      11.90554000      24.28999280       1.48979349      24.16805342
H        6.04811500      10.85433800      12.37789000      -2.96768931      13.10842416      12.51259209
C        7.53157500       9.33991000      12.65301000     -18.81717802     -44.44234186     -13.11719337
H        7.41662500       9.54819000      13.68445000      -4.23583516      15.52991036      30.62787802
C        7.04072500       7.83874500      12.52656000      45.00463765      16.45695776      59.10860383
C        9.01403300       9.63542100      12.37524000      31.98651262      44.32265404     -34.08733025
O        9.43621800      10.84878300      12.42527000     -22.38162372     -82.20716949       1.38506072
H        6.79550500       7.63476500      11.53969000     -19.95397537      -9.07563169     -45.16449792
H        7.96116500       7.21184500      12.74649000     -30.75550554       1.95996520       8.41515634
H        6.20247500       7.68873500      13.27045000      19.61209480      -4.41355381     -19.43493311
N        9.80707000       8.54947500      11.94992000      42.42684625     114.97615609      11.93678698
H        9.46543600       7.66019500      11.89270000     -29.02109857     -63.14054307      -4.73579847
C       11.27651500       8.72515500      11.73805000      10.00186142      -3.88023196       0.74091861
H       11.56979500       9.67051500      12.21858000      -8.06513462       3.15452082      -1.96972983
C       12.03932500       7.56989500      12.46769000     -14.72290630       5.19938143      19.10312527
C       11.77764500       8.91173500      10.20570700       6.29579303     -38.46209809      39.65340674
O       12.97041500       8.58840500       9.96288100     -33.50157091      23.44648988      -4.43802464
H       11.55615500       7.44807500      13.50689000       1.00723113     -10.55074269     -36.72271400
H       12.02292500       6.71749500      11.75852000      -0.66384320      -4.71675507      20.50939799
H       13.07905500       7.72926500      12.81752000      -3.33761949      10.77743855     -21.96994500
N       10.83527700       9.35434800       9.36801000     -53.29141991      20.01618934      -4.09506569
H        9.82860890       9.47080000       9.71409700      39.06800291      -4.12467954      -3.70318878
C       11.03829500       9.94567090       8.00273000      21.03400989     -40.23027836      14.29345216
H       11.79772500       9.25565500       7.60703000       3.77251292       3.94301475     -11.60141221
C        9.77776300       9.88758530       7.16118000     -12.93386954     -28.22843334     -18.21269524
C       11.68018500      11.32802500       8.19714000     -33.95188155      65.37005474       6.55345366
O       11.04129500      12.36861500       7.89997000      25.10505506     -30.80231415       4.28619885
H        9.55736200       8.87826500       6.62732000      13.20666298      26.10675922      30.06214566
H        8.86770500      10.17738300       7.71492000       5.76264893       0.35329595      -1.44522459
H        9.90536210      10.55004300       6.31555000      -0.29076913      14.99427771      -4.49613841
N       12.87001500      11.29504500       8.86856000      -5.35758266      -8.66834942      -0.20964923
H       13.03746500      10.32868600       9.11991000      23.69380522      -6.60484833       6.71154825
C       13.52591500      12.32023500       9.69560700     -55.51974655      25.56804550      10.02450731
H       13.59526500      12.02869500      10.77692500      -1.61836903      -3.84912498     -17.54327293
H       14.50007500      12.55816500       9.32998000      20.65290489       4.12304420      -8.71355824
H       12.88063500      13.28250500       9.68792500      20.30355863     -31.13530701      -4.79288127
42
Lattice="20.0 0.0 0.0 0.0 20.0 0.0 0.0 0.0 20.0" Properties=species:S:1:pos:R:3:dft_forces:R:3 dft_energy=-8.363076980225742 energy=-620681.4057298843 pbc="T T T"
H       10.58923300      12.10937000       8.07904000       4.23795636      21.64820990     -12.50891850
H        9.71622900      13.75676000       8.07447000       4.59995872     -18.79217393       9.65306028
H        9.39793700      12.63232000       6.81165000     -10.32954537     -18.66667946       0.96769860
C        9.63771000      12.65420000       7.87721000       7.70927072       7.11036942      28.66013904
O        8.68271000      10.62566700       8.72339000       6.10226610     -39.71016958       4.42241782
C        8.79691000      11.82737000       8.89107000      -1.34228121      38.14166652     -60.21944907
N        8.21142000      12.47376000       9.89749500       4.54902621      30.67077604     -12.38164649
H        8.19392000      13.49429000       9.82493500       1.40595276      -9.74198479      10.04031558
C        7.56044000      11.78148000      10.94577900     -25.65964816     -15.02651047      53.24615184
H        7.37550000      12.55576000      11.76238000      13.86459052     -21.76138007     -13.82335155
C        6.18141000      11.20949500      10.64437100      -3.29728114       1.15252386       1.99286158
C        8.50626000      10.69799900      11.56229000      14.39382403       4.12597122      28.02591206
O        9.35819300      11.11661600      12.35872000      -2.55202889     -12.66119460     -12.60810534
H        6.23943000      10.35977900       9.97521500      -3.60528177       5.12547123     -24.95206794
H        5.71588000      10.71944100      11.50509000       3.09643075      10.24591794      13.50280148
H        5.55864000      12.06217000      10.34539300      -7.62887842     -10.83083591     -10.72530916
N        8.34280000       9.33492000      11.32850200     -10.56093393      14.43458899     -24.63910205
H        7.77025000       9.03729000      10.52981960       4.98519947      10.46108347       5.44154190
C        9.38047900       8.36950000      11.69381000      -0.66552594       8.93601170      33.68193217
H        9.43429100       8.44565000      12.80950000      -2.65295772     -16.14707294     -11.28322034
C        9.02552000       6.96192000      11.15674700     -45.09209271      29.01813600     -23.17547398
C       10.80479900       8.76574000      11.32383500      14.11237988     -46.39716404      76.62485811
O       11.72177000       8.49915000      12.14537000     -17.84272950       7.48020481     -25.75800548
H        8.21798000       6.58456000      11.79397000      -1.92261312      -6.61383084      -3.88024381
H        8.66320000       6.96534000      10.06424800       3.30633476      11.66303367      29.52817205
H        9.79050300       6.24324000      11.08231100      35.14117564     -16.73532084      13.47791589
N       10.94174700       9.11310000      10.08165700      -1.04567463      75.21040870     -83.53440084
H       10.15005850       9.78730100       9.71794000      28.02354200     -43.28184395       7.22572004
C       12.25169000       9.56152800       9.56460100      -5.13128972      48.89650659       5.56599354
H       13.05375000       8.94763000       9.86546400      16.93156148     -26.41545901      29.00711524
C       12.33297000       9.49351000       8.06811000      27.72313741      -2.37344517     -13.63173252
C       12.59011000      11.04001800      10.16507300      -9.77976348     -44.26648371      -3.90949030
O       12.48089000      12.08936000       9.56327100      -6.05532715      19.96736619     -29.43573986
H       12.22697000       8.42608000       7.79161000       1.03185957       7.28616832      -3.47601891
H       11.52066000      10.04472800       7.62778000      -7.66952488      10.41609981     -14.35578463
H       13.36267000       9.87095900       7.68802000     -37.46300099     -10.10211479      12.67055632
N       12.96702000      11.00034400      11.44544000      16.60212369     -13.11423080      15.74499295
H       13.14054000      10.10377400      11.88528000      -7.40662642      -6.63401187       0.18630892
C       13.50484000      12.17566000      12.07688000     -26.44389969      18.97454974       5.23219485
H       13.49463000      12.05730000      13.18835000      10.39853770       0.91778878     -18.29576570
H       14.44136000      12.45580000      11.58859000      12.27321643       0.24427575      11.42982016
H       12.81794000      13.00862000      11.82182000       3.65856063      -2.85521830       6.26529041
42
Lattice="20.0 0.0 0.0 0.0 20.0 0.0 0.0 0.0 20.0" Properties=species:S:1:pos:R:3:dft_forces:R:3 dft_energy=17.35759046988096 energy=-620655.6850624342 pbc="T T T"
H        5.36777000       8.33928500      11.95652000       5.75916495      -0.43656313      -0.47832944
H        7.12859000       8.47372500      12.40802000      -4.77454889       2.72531553      17.80919321
H        6.69431000       7.36385500      11.22604000      -2.37355182     -36.78397995     -15.48156122
C        6.41138000       8.30012500      11.61075000       9.12773738      41.99075595      10.04832637
O        7.05844000      10.55696700      10.90154000      -7.74428829     -14.19912393     -12.89073452
C        6.75304000       9.39495100      10.60218600       3.86834613     -18.48975478     -24.91272502
N        6.75677000       8.84919000       9.30345500      11.87315098      36.53002845       1.31731267
H        6.87006000       7.85459500       9.21403500      -6.49825506      -9.22723233      12.20768438
C        6.99045000       9.45794900       7.95957000      36.51568961      45.46312498      31.12914487
H        7.11212000       8.60600500       7.38043000      -1.21970191     -39.12263270     -35.40911047
C        5.85410000      10.32595200       7.45015000       4.98860050      -5.23659130     -36.68183054
C        8.41659000      10.19411900       7.64159000     -12.00599262     -13.67119396     -42.05225890
O        8.81987000      10.21034800       6.42914000     -22.97318970       0.25520526      79.16769118
H        6.00454000      11.39490500       7.68666000      -7.32680293      -7.78440149       2.08098026
H        5.84656000      10.20490600       6.30442000      -2.51671505       8.51175982      33.85411674
H        4.93003000       9.90281000       7.85400000      -6.03953072       8.22513710      -1.11006194
N        9.05240300      10.73614500       8.72916500      60.21008735       3.44249447    -129.90395373
H        8.54844000      10.79756500       9.54176710     -39.38310185      18.12132958      66.03817352
C       10.37243400      11.42776500       8.43830000      -1.82326037      -4.51733856      18.79620302
H       10.69490700      11.44842500       7.39045000     -11.00324563     -31.83471053      -2.26301241
C       10.33990400      12.93046500       8.71351900     -96.08692837     -17.41872648      14.19687237
C       11.44821000      10.80777500       9.33685800      12.77092819       8.54233355      40.05205015
O       12.63258000      11.18239500       9.23969800     -25.27712112     -19.09328954       2.65305252
H        9.68887900      12.96185500       9.60561940      15.29444530      17.04698320      11.01150528
H       11.27929000      13.34243500       8.82709300      46.99714372      21.58149282       7.75184877
H        9.69430900      13.48550500       7.99394000      15.51877110      -8.97271201      -3.77780999
N       10.93403000      10.05014400      10.44281700     -28.10127984      35.21334385     -84.45789315
H        9.91153750       9.85759000      10.29160700      34.68493986      -9.31455704      15.78682443
C       11.76123000       9.48017600      11.41342000     -10.73892514     -45.56408936      62.45595240
H       12.45305000      10.23813400      11.71831000      32.08202588       9.00808510     -10.84507994
C       11.03072000       9.26387200      12.76600000      36.45288313     -41.68940333       1.20606224
C       12.44524000       8.10815500      10.98898000      61.89934475     111.35245899     -56.78618596
O       12.35292000       7.04384500      11.47953000     -31.23046476     -72.84687037      36.31992299
H       11.58446000       9.43406300      13.69558000      20.37015721      -1.34431946      -7.74484526
H       10.28651600       9.93071200      12.87596000     -68.37101963      62.82923622       0.59180180
H       10.56887600       8.30226500      12.93690000      -1.35888345     -17.94511592     -10.69674999
N       13.34390000       8.38620500       9.92841700      -7.49351267      -8.71603495      30.01403352
H       13.72118000       9.31332200       9.86722100      -5.74045336      17.29678710      -6.24942288
C       13.99851000       7.30247500       9.24422700      -9.25729649      -4.11660950      -1.39610518
H       15.06997000       7.03967500       9.49617100     -20.68845572      10.97102472      -1.28609903
H       13.31842000       6.51449500       9.56741180      10.91004318     -23.76182583      -8.97950222
H       13.84612000       7.48673500       8.16971000      10.70280548      -7.01979773      -1.08526286
42
Lattice="20.0 0.0 0.0 0.0 20.0 0.0 0.0 0.0 20.0" Properties=species:S:1:pos:R:3:dft_forces:R:3 dft_energy=15.74673601705581 energy=-620657.295916887 pbc="T T T"
H        7.21557000       7.68731000       8.58589500     -19.79992173     -34.06623675      37.19826574
H        5.79766000       7.43633000       9.84711710      16.68187608       7.26373574     -11.19142808
H        6.72586000       6.01265000       9.54744300       9.88169959       5.94336570     -21.46938917
C        6.83261000       7.11192000       9.54441300      -5.58636417      20.15471912      12.87438113
O        8.79466000       6.62936000      10.85239500       7.64753076      -4.93871082       5.31242125
C        7.84163000       7.37290000      10.69280300     -12.58274574      34.48241858     -19.24141804
N        7.70735000       8.61724500      11.36232500      25.51886683     -42.36640982      -1.88572320
H        6.75823000       8.92885800      11.43373500     -10.48476033      13.32812835       4.42274963
C        8.68561000       8.87084900      12.42999500      43.59729840     -27.62051398     -15.57340089
H        8.64775000       9.80643900      12.93221500     -34.43193639      24.44629800       4.53965264
C        8.85984000       7.78567000      13.51091500      26.54604910     -14.41776159      13.38761676
C       10.11822000       9.28978300      11.80233500     -23.14454475      11.32384310      12.12769499
O       10.36569740      10.48560000      11.91989500      10.09338114      17.77139081      -2.85896299
H        9.81475000       7.19050000      13.29982500     -25.59980425      15.40192734      10.55084934
H        8.94093000       8.27191000      14.53172500       0.23786593     -11.49243704     -21.70046963
H        8.06291000       7.02870000      13.55761500      -2.43435561       6.10064262      -2.58187974
N       11.02205900       8.44936100      11.28893500       9.13872258     -58.48409407     -31.97572886
H       10.84889300       7.46620000      11.00347500     -26.38559631      17.95222609      19.88939135
C       12.32448000       8.75891100      10.72722200       9.09514911     -15.00387644     -16.47745875
H       12.70061000       9.62568500      11.33235500       8.04017793     -14.34547488     -16.51585366
C       13.14508000       7.39008000      10.75887500     -14.48862627      18.60316196      36.31032426
C       12.30509000       9.13154700       9.14388000     -28.47254911      33.63287201      60.78304838
O       13.34282000       9.27129400       8.52931500      11.81965882      -9.73290747     -14.70619741
H       13.09073000       6.93270000      11.78276500      -2.20066809       9.51276482     -11.09775161
H       12.66942000       6.63847000      10.08121000      15.34030589      13.79905848       0.33051379
H       14.20234000       7.62593000      10.61955500       0.06721846      -8.21064421     -15.79464562
N       11.05065100       9.48227270       8.71434500      44.10614942      -9.43447002     -51.72564242
H       10.32495140       9.62575300       9.35397400     -29.30953438       4.54451126      28.51284006
C       10.91025200      10.05863200       7.35488500      57.18850297      -7.87452287       0.11566537
H       11.89611000       9.78908500       6.84205500     -20.11608720      10.28481056      17.17626976
C        9.84516100       9.42318970       6.56097500     -48.26583469     -33.30153818      -6.92819507
C       10.81897200      11.56070000       7.54241500      -2.83679111      43.65927537      38.83810748
O        9.80865000      12.11974000       8.04195500      22.92768462     -17.54031036     -30.64233537
H       10.05916100       9.34206590       5.46827500      -2.00050501      12.21680910      12.36375257
H        9.85022700       8.31797000       6.89735500     -14.13762097      32.66114906      -8.56429211
H        8.84697000       9.97692000       6.73389500      25.12745209     -25.98150176      -5.65252428
N       12.02232000      12.21968000       7.40680500      62.17047916     -49.57849020     -30.66342886
H       12.90680000      11.66085000       7.16741500     -47.58977622      10.42870851       9.00161485
C       12.30326000      13.65682000       7.39882500     -48.68225352     -17.68571329      -7.17874553
H       11.63184000      13.98735000       6.53076500      15.26849319      18.34304832      35.96477010
H       12.07517000      13.92067000       8.44922500      -5.63931122      26.84811273     -15.29314177
H       13.34107000      13.88037000       7.15640500       3.69505949      -6.62750606       0.01880888
42
Lattice="20.0 0.0 0.0 0.0 20.0 0.0 0.0 0.0 20.0" Properties=species:S:1:pos:R:3:dft_forces:R:3 dft_energy=13.320084030274302 energy=-620659.7225688738 pbc="T T T"
H        8.79867000      13.53289500       5.62440000      17.53651827      18.57934290      16.58162271
H        9.63969200      14.74371500       6.84148000       3.35398473      35.24451008     -17.31977665
H        8.39956000      13.74048500       7.30715000       0.77282667     -14.95197221      12.18291730
C        9.25949500      13.77529500       6.63351000     -39.25737038     -13.87987739     -28.21042092
O       11.23259000      13.29935500       7.75652000      73.58514281      32.35872991      61.89377512
C       10.41993000      12.93918500       6.98076000     -39.59569587     -84.23427837     -45.14032335
N       10.48626100      11.66111500       6.37544000      37.00747623      44.91813060      30.13478788
H        9.65924000      11.44870500       5.88819000     -21.33062239     -20.16988747     -21.69229294
C       11.55974000      10.63424600       6.54070000     -22.42274419       1.93171413     -12.40783561
H       11.24389000       9.96066900       5.68112000      15.76016130      -0.65443289      29.40255908
C       13.09284000      10.98756500       6.31075000     -38.81950254      24.53707114     -27.10680435
C       11.43084000       9.86513100       7.94488000       3.47424137     -30.75195046     -36.80768051
O       11.42919000       8.61779500       7.98828000      -5.56325612      16.11140360      -2.88746291
H       13.48868000      11.65322500       7.10806000      -1.09357820      -9.65727898     -11.45060555
H       13.44548000       9.97199800       6.34291000      25.36564271      -9.56055700       2.84883100
H       13.29445000      11.42149500       5.24430000      -9.33601790     -13.37920306      41.63015193
N       11.34248000      10.63761700       9.02892100       1.36576846      17.59494015      42.93889685
H       11.81939000      11.53055500       8.94591400     -13.24766495      14.62253443      -4.14222980
C       11.47287000      10.06617000      10.43593900      -7.09744076     -54.59056610     -54.99560867
H       12.07349000       9.14523900      10.14825300      -3.34984898      13.33950462      23.50763732
C       12.08377000      10.97854500      11.39097000      18.75946716      18.87856247      45.83794933
C       10.11169640       9.47744600      11.03622000      54.36102617     -12.24773833     -75.99003862
O        9.43766400       9.98018000      11.86186000     -34.68493986      69.72396609      84.95086480
H       11.37674000      11.74627500      11.76045000       7.26846400       6.65950182     -15.71193066
H       12.17331000      10.41931100      12.32398000       3.71264530     -10.26773431       7.16652790
H       13.13161000      11.33330500      11.24287000     -18.05911561       2.18064111     -12.02767863
N        9.69500000       8.34259500      10.46863600       8.19625797     -15.36388794     -28.26244365
H       10.28680300       7.98114500       9.69543000     -17.43579089       0.78150819       4.11483195
C        8.26910000       8.02739500      10.61232000      -0.62722584      29.60685790      34.44141661
H        7.74264000       8.88744600      11.13596000      21.63031597      -3.18151576     -16.51846072
C        7.62069000       7.83647500       9.30557700     -43.65240220       7.20034859     -53.74184905
C        8.04698000       6.96662500      11.71024000      -9.05255920     -31.15592650     -75.11205138
O        7.29604000       6.03890500      11.42547000     -18.37421456     -10.62888344      22.35081299
H        6.51132000       7.95575500       9.25846000       9.14068973      -8.22494750      19.98537862
H        7.84006000       8.53794500       8.46745000      17.85576481       8.50011100      20.57350801
H        7.79820000       6.90966500       8.80829300       7.14537515     -30.53177225      -0.40091986
N        8.84020000       7.07350500      12.76017000       0.36223106       7.43119205      23.65801738
H        9.46386900       7.86338500      12.71426000       3.39568587       6.93926323      10.30821486
C        8.72856000       6.32992500      13.98199000      46.16952017     -27.41562264      13.72096513
H        9.80368000       6.19771500      14.32547000     -23.31258171      15.49033043       9.43833321
H        8.05311000       6.73988500      14.75570000       6.80511806       1.70535009      -5.38554932
H        8.52328000       5.25628500      13.84478000     -16.71185729       6.51297311     -12.35581288
42
Lattice="20.0 0.0 0.0 0.0 20.0 0.0 0.0 0.0 20.0" Properties=species:S:1:pos:R:3:dft_forces:R:3 dft_energy=7.94135113642551 energy=-620665.1013017676 pbc="T T T"
H       12.25350000      13.48766000      10.85861400     -14.30933153      -4.59692504      -9.33381374
H       11.23581000      13.23291000       9.37161300     -27.52606725      31.77474812     -21.55968831
H       13.07858000      13.42730000       9.37074100      -0.58143162       3.60242585     -23.01881328
C       12.16624000      13.07232000       9.83256200      35.27982392     -22.30910001      37.85097916
O       11.96506000      11.07962700      11.08530000       7.18919748     -24.28726724      43.56174756
C       12.11820000      11.55975000       9.98118650      -4.09314594      23.99041773      -1.48542074
N       12.09264000      10.81754700       8.86745000     -13.04431415     -19.50117618     -82.52084640
H       11.83113000      11.28344000       7.92675000      19.81603812     -15.41437013      48.16119672
C       11.90766000       9.29021400       8.76888000     -11.74749061      47.68896306     105.11067954
H       11.74771000       9.13004000       7.77859000      -5.55525718     -14.47677599     -69.90906747
C       13.05583000       8.48422000       9.37341200      -3.12964708       3.11741759     -84.22918275
C       10.59558000       8.84448000       9.45562900      -4.05722774     -36.73124620      25.85671832
O        9.70615200       8.31701000       8.78279000      -9.00506328      10.06134983     -17.36350418
H       13.89473000       9.11996000       9.27028000      34.85297683      10.62372857      -3.26546314
H       12.94953000       8.22798000      10.35896500     -11.56345576     -16.72690714      57.04037447
H       13.17660000       7.59514000       8.70821000       3.33073448       6.72951327      15.32573004
N       10.55920000       8.72508000      10.83573200     -48.78914305     -12.52515338     -25.59352360
H       11.17758000       9.34208200      11.32007000      11.53599867      15.04428589      19.59135681
C        9.26358900       8.08996000      11.49055000     105.96259616     -15.89442498     -11.18013476
H        9.14310800       7.19793000      10.82794100      -7.37657411      13.26070026      11.36490432
C        9.72302600       7.60278000      12.91852000      37.32435272      10.02916447     -38.39869910
C        8.05226000       8.89507000      11.34126000      -6.98367808      11.86343375     -20.74758862
O        6.98550000       8.30587000      11.32268000     -27.02811849      -7.63527757      11.30956352
H        9.75759800       6.51234000      12.83955000      14.67230560      -0.45641353       6.75839240
H       10.71902000       8.09846000      13.26328000     -36.18518531     -22.57466478     -14.14876024
H        8.97808400       7.80108000      13.61364000     -34.79017035      14.37391556      36.13659916
N        8.17991000      10.20756320      11.02598000      -4.28449241      -0.56698020      -0.08631614
H        9.07205500      10.66411600      10.98308700      15.50822435      -1.94824527       4.89478183
C        7.06372000      10.98909400      10.58485400     -28.23400297       2.16919374      23.57980553
H        6.16701000      10.26308810      10.60629800      23.64320453      23.34327394      -4.04159722
C        6.81680000      12.20378000      11.53181000      -8.76464480     -32.36264050       2.66371778
C        7.24702000      11.56577000       9.18639000     -74.51053117      66.61492665      -6.35837435
O        6.53650000      12.57625000       8.82464000      38.69033448     -48.33231476      14.11688298
H        6.31580000      11.88006000      12.47052000      13.09479634       2.04877120      -5.77453476
H        7.77658000      12.71349000      11.70740000      -7.35532656       3.75211859       2.27839407
H        6.10527000      12.78401000      10.97214800      -4.49660057      21.45505033      -2.22644245
N        8.06955000      10.94512600       8.38299000      37.11128468       1.87149101     -44.45229610
H        8.55556500      10.14540090       8.69117000      14.14082055     -31.58336610      15.41745121
C        8.38019000      11.36094000       7.00218000       2.91731377     -45.80334652       1.58764125
H        7.41243000      11.77036000       6.69562000      13.50611956      22.20754311     -14.09176039
H        9.35977500      11.94403000       6.94716000     -33.59945422      -2.23400292      -2.77514596
H        8.52572600      10.38965100       6.38636000      -1.56557603      30.33813868      19.95397537
42
Lattice="20.0 0.0 0.0 0.0 20.0 0.0 0.0 0.0 20.0" Properties=species:S:1:pos:R:3:dft_forces:R:3 dft_energy=15.71677735063713 energy=-620657.3258755534 pbc="T T T"
H        3.26913500      12.28617000       8.27136000      25.75610944     -10.95795386      10.97537377
H        4.88372500      13.13978000       8.41289000     -24.27837953     -21.40219809      16.92196275
H        3.91869500      12.64891000       9.86051920      -1.15285567       2.12120011      22.31265509
C        4.22818500      12.31770000       8.88957800      10.41644347      31.93129032     -47.61181774
O        6.22745500      11.13035000       8.27464000      14.36799042       3.61726240      -6.09676757
C        5.15654500      11.10597000       8.85965500     -11.74272680     -12.97214594      -2.11630594
N        4.70210500       9.97468900       9.48589700      30.69589863       6.06222401     -36.58868734
H        3.84671500      10.10891700       9.91735300     -46.97782776      -9.05436044      29.02974927
C        5.43199500       8.70722200       9.48980500     -29.90975106     -17.88195393      49.49091663
H        4.85131500       7.93407000      10.07923900      -8.90556833      19.65759987     -16.37400580
C        5.74020500       8.06114000       8.16900000      20.83611021     -31.56381313     -64.88419326
C        6.50715500       8.85525900      10.58943700      23.99397281      -3.77013101      48.93110940
O        6.31272500       8.89342800      11.82487000     -25.41221431      -2.62587983     -23.02426440
H        6.53283500       8.48023000       7.50516000      -1.71056421      10.77946494      19.26571112
H        6.06599500       6.97092000       8.18570000      -7.81989308      22.61649627      19.43102252
H        4.92893500       7.99575000       7.38774000      -3.54517715       9.75832632      26.74051219
N        7.72976500       8.86928400      10.10943800      48.71472329      -4.42154090     -41.55786522
H        7.76971500       9.13354300       9.10294900      14.32639593      -7.56353597      15.39327664
C        9.05541400       8.94085900      10.77709100     -17.78987725     -17.35769754      21.07276030
H        9.09966500       9.84951100      11.34351000      -4.24213951      27.42474736      10.94719381
C        9.43713400       7.89399000      11.83628000      43.36005580     -34.80853828     -25.56650496
C       10.08012400       9.14239400       9.68325400     -57.21907669      -7.38587658     -20.66771773
O        9.55135600       9.45725280       8.61905000      28.27216088      19.06603390     -37.85228269
H        8.69679500       7.75365000      12.61226000      -4.86993179       3.57105816       6.94296051
H        9.70177500       6.86022000      11.38016000     -16.32672319      29.83118370      10.41612351
H       10.45171500       8.21733000      12.25872000     -31.01929277      -4.38068114      -0.32587203
N       11.37103500       8.99357400       9.90923700       8.18620893     -16.42626554      39.34150737
H       11.65359500       8.39714000      10.70732900      -2.58570738      12.19808566      -9.54101589
C       12.45829500       9.54199571       9.15411800     -23.69937485       2.50533878     -20.52575138
H       12.47424500       8.98875000       8.16083000      11.24807241      10.67181700      15.79452712
C       12.18070500      11.09613000       8.80348100      15.62921571     -19.70310495      40.58827532
C       13.65555500       9.15548800      10.06720100      23.79678415      97.90002120     -48.12185379
O       13.74531500       8.18367000      10.76347300      -8.03387358     -30.41208443      17.54528747
H       12.94080500      11.39515000       8.03137000     -13.37304091       8.69918385      20.55075547
H       11.18555500      11.17100000       8.39519000      -9.16802833      -7.21548140     -17.48876164
H       12.03099500      11.71569000       9.78432150      26.24943659     -17.96040278     -35.96370357
N       14.62548500      10.19896700      10.04083500       1.82795308    -103.04043563      63.48823029
H       14.59586500      10.75170000       9.24282000       9.37872630      31.05673966     -37.86662153
C       15.88438500       9.68651900      10.71127600     -16.52035676      21.49226021      -6.22450174
H       16.73086500      10.30594400      10.39059600      -0.11626547      -2.03324733       4.81261199
H       15.68970500       9.76307900      11.79987000       9.33607715       2.00580208      -7.94122810
H       16.04419500       8.61159100      10.49757700       0.02654451       9.97138250      -3.65282509
42
Lattice="20.0 0.0 0.0 0.0 20.0 0.0 0.0 0.0 20.0" Properties=species:S:1:pos:R:3:dft_forces:R:3 dft_energy=6.254447760991752 energy=-620666.7882051431 pbc="T T T"
H        8.66624800      10.92545900       6.75597000      19.17304193      31.38475540       0.83794514
H        9.85768600      12.18217500       6.00640000     -10.64495242      -6.50631325       6.94809169
H        8.73789600      12.68736500       7.34968000      -1.13793735     -10.70938239     -11.53160221
C        9.33356400      11.84799500       6.93203000     -24.59359698      -6.62680690      -0.14994278
O       10.63762500      12.29541500       8.92372200     -19.45756715      17.44693015      28.99348742
C       10.37328100      11.58284500       7.96630000      50.84635165     -24.74776912     -17.60406486
N       11.25769500      10.55782600       7.66220000       3.48801140      -3.91344830      11.28798416
H       11.03628500       9.93286200       6.91201000      -6.90077352      -6.78775740     -11.22091157
C       12.39756500      10.10691600       8.48923000      17.03714747      -8.75502237      -4.22063125
H       13.09245500       9.53078600       7.88562000     -12.45997684     -17.33719656     -16.84647647
C       13.39190500      11.24721500       8.83486400      24.12871049     -36.54413028     -18.91458732
C       11.94886500       9.09405200       9.59461930       7.41648585      33.75137481       6.08244059
O       12.20970500       7.88620500       9.60087240     -11.80336468      27.98194752       1.43500965
H       13.90169500      11.44838500       7.84629000     -16.23595004      16.88913747      21.55068209
H       12.93293500      12.01959500       9.36959900     -15.49151546      41.05102875       5.26083698
H       14.23150500      10.92851800       9.47778280      -6.34666628     -12.43201018      -0.83085749
N       11.28640500       9.81235600      10.57471000       2.54049856     -15.51154243      34.79040736
H       11.03251500      10.81422300      10.55209000      21.39994653     -11.49112166     -24.41098416
C       10.60102500       9.17175600      11.70072000     -26.89515835     -21.75948403     -32.18855989
H       10.82535500       8.11761500      11.74484000      17.77624943     -12.85625020      -4.74794501
C       10.84279500       9.75748900      13.04322000       2.20293149       5.37656681      72.89889310
C        9.13283200       9.10004300      11.25558000     -51.17970002      19.84021269      34.80759026
O        8.34980500       8.15474500      11.46675000      23.68882810      -6.35811365     -11.81054595
H       10.50029800       9.10361900      13.99360000      19.51338197      22.78038564     -52.39139115
H       11.89324500      10.06023860      13.15019000       9.51089248     -19.75417965       1.47211288
H       10.43850200      10.74049900      13.29413000     -22.07553099       6.23357906     -13.03601895
N        8.60871400      10.28879900      10.81871000      57.84323093      -8.23036308      -6.19920139
H        9.22847600      11.10800500      10.73836000      -5.94273764     -12.54221779      -3.24179813
C        7.30511500      10.54080100      10.35094400     -30.95162767      34.32421734      27.93110982
H        6.60313500      10.01144660      11.04165000       3.91555765      -0.14886677     -10.04049334
C        7.13690500      12.05795500      10.66397000      56.03416720       2.43235291     -12.90258480
C        6.93786500      10.07683362       8.93413400     -13.43904697     -10.39327617      18.71810968
O        6.40968500      10.77597400       8.08358000       1.31102017      15.11289901     -10.42241601
H        7.29283500      12.14410500      11.77115000      -7.91231341       4.20854397     -16.87705019
H        8.05853500      12.64941500      10.14914700     -49.44955915     -22.96039139      20.11774624
H        6.18153500      12.42544500      10.34468300     -11.61974459      11.35857627      -5.09453015
N        7.03941500       8.73292500       8.84256800      21.29210898     -20.33259182      58.07656295
H        7.54103500       8.20545500       9.59266730     -15.15887810      17.91951931      -4.57215796
C        6.66329500       7.98724500       7.73127000      66.11520034     -34.50209005     -50.65283658
H        7.57378500       7.31263500       7.45439000     -32.60403071       9.00739778      11.57023412
H        5.76849500       7.36767500       7.71748000      -9.54167950       5.45823894       6.86551893
H        6.75994500       8.70622500       6.94511000     -23.39150458       8.64268172     -29.73697398
42
Lattice="20.0 0.0 0.0 0.0 20.0 0.0 0.0 0.0 20.0" Properties=species:S:1:pos:R:3:dft_forces:R:3 dft_energy=13.621975208166987 energy=-620659.4206776959 pbc="T T T"
H       13.28443000      11.56145800       6.17348000      14.38825439     -18.75235699     -26.87086527
H       13.10735000      11.81563000       7.90280000      15.51936362     -15.91279291      12.55466058
H       13.81657000      13.10585000       6.99730000      13.29222200       7.81160973      -8.56304784
C       13.13116000      12.27713000       6.92630000     -34.81801851      10.91826727      29.03105280
O       10.86487000      12.54835000       5.93757000      53.78202150     -11.40346513      53.12599000
C       11.71177000      12.76493000       6.86758000     -50.24127635      30.31171256     -52.34766361
N       11.36321000      13.62646000       7.90641000     -28.51355108     -58.66955095     -27.02385239
H       12.11903000      14.02299000       8.41840000       3.91735889      12.10565347      20.92202474
C        9.94623700      14.05335000       7.91527000       1.50485520      25.13823584      11.71310110
H        9.82498200      14.63035000       8.88671200       2.68622146      -5.57880369     -20.60218569
C        9.76067200      14.97839000       6.75008000     -24.63708750      33.77649740      22.12376163
C        8.82362700      12.97319000       8.01356000      -8.86943682      37.73662395    -103.03699905
O        7.83989000      12.93507000       7.21336000      34.77867558       9.47327969      52.80757298
H        8.81361700      15.55386000       6.93279000      17.41908199      -3.43248099     -12.21669060
H       10.64710000      15.57164000       6.88917000       5.42313841      31.37172010      -7.62262147
H        9.82650100      14.58870000       5.75302000      -8.46288927     -16.20502081      -7.58382365
N        9.14921670      12.15447000       8.94507400     -32.00642109     -81.55374505      63.60768111
H       10.07571800      12.07211000       9.30019600      22.45900605       9.51274112      12.66309064
C        8.25332800      11.09907900       9.45371600     -15.39090658       5.08552394     -16.58541480
H        7.38740000      11.62604900       9.92172800       1.21778217      -8.86540773      -8.07799218
C        7.87180000      10.08007700       8.35943000      -4.01700789      -3.89805478       4.77569837
C        8.94828900      10.35178400      10.55377500      33.35474594     -33.92746997      37.00107708
O        9.99047100      10.76053460      11.11514000      -7.57056319      14.41337699     -18.86481614
H        7.16744000      10.40605600       7.59506000      -0.64548238      11.96629418       1.63604965
H        8.82000900       9.85464100       7.86153000      -0.51045792      -8.77487159      -3.64761097
H        7.44914000       9.17114000       8.82296400       4.85325845       4.19079225      -6.91744686
N        8.48872700       9.10984000      10.92355000     -18.57756536      36.85377810      -7.92014645
H        7.60905000       8.62937000      10.66957000      -1.86978457      12.94346826     -17.06298108
C        8.93487000       8.41221000      12.09486000       0.13537049       3.73192571       8.29716310
H        9.98862100       8.18633000      11.84977000      -2.57331199     -23.80472384       7.90419597
C        9.04411300       9.25131000      13.36711000      10.11520935       4.50817830      -9.47976179
C        7.86075000       7.26374000      12.19248000      15.17949759      13.84290451     -17.23658768
O        7.03829000       7.22572000      11.27915000     -19.28384204     -20.72685063       4.56002327
H        8.16832000       9.51068000      13.91883000     -33.14321844      10.11372807      -5.98985435
H        9.54598000       8.68391000      14.12833000      25.81950844      -7.79365656       8.57892721
H        9.59244800      10.14366500      13.02554000       2.06331149      -2.70148462      16.44226342
N        7.84365000       6.46482000      13.27545000      54.41411543       8.61079261      24.85560667
H        8.76607300       6.50046000      13.78139000     -29.38904976      -0.97907487      -7.87069523
C        7.17457000       5.20877000      13.30653000     -22.45059235      -6.28493817     -26.35999970
H        6.18343000       5.25884000      12.87535000      -7.76728969       9.94117614     -11.60904379
H        7.68461000       4.42836000      12.78225000      16.60496776     -13.38406167     -18.41497952
H        6.98254000       4.79298000      14.24698000       1.80966810      -1.70937918      49.30486723
42
Lattice="20.0 0.0 0.0 0.0 20.0 0.0 0.0 0.0 20.0" Properties=species:S:1:pos:R:3:dft_forces:R:3 dft_energy=-22.420605108956806 energy=-620695.463258013 pbc="T T T"
H       12.30921000      12.87324000       7.94036500      13.13781286       1.97279905       1.15372903
H       12.85690000      11.55646000       9.02182000      15.48997492     -17.50227096      -0.86329052
H       12.47206000      13.14981000       9.72183600       4.68398905       3.30814785      -0.50912358
C       12.24207000      12.42405000       8.93947100     -39.35916428      19.85905463      -8.97560348
O       10.34755410      11.13280000       8.22394500     -15.11858715     -26.27408517     -32.53150699
C       10.77311900      11.98653000       8.97969500      40.61505695      -8.10355323      10.81415071
N       10.02822200      12.48541000       9.95714000       4.18236670      47.28119493      30.27628022
H       10.50782800      13.12620000      10.59567500     -10.29132821      -6.07508156      -3.40816421
C        8.64723000      12.15946000      10.19389200      -0.47543442     -34.37718809      31.68717455
H        8.28825000      12.69163000      11.08176500       8.98654129      -0.42411559       6.18916421
C        7.73119000      12.47005000       9.11118100     -75.03727611      -3.76326970     -41.80328452
C        8.62219000      10.66646600      10.60037000      35.51043037     -12.75469331      80.08999847
O        9.20882000      10.33498000      11.70424500     -27.01603120      16.75688835     -60.56571425
H        6.64008000      12.05325000       9.26368700      43.22508111      11.70782772       2.23316155
H        7.55259000      13.53285000       8.98565600       5.00738319      11.33455576      -2.13320444
H        8.06311000      12.06260000       8.15574500       2.91982603       0.53477469      -5.80079498
N        7.99777000       9.75343400       9.85125520     -12.78123793      -8.44379847     -17.54457646
H        7.64030000      10.01988300       8.90934500       7.03917294      -4.85236968      22.06012563
C        8.08399000       8.32677000      10.13533200      11.34902495     -33.36837376      29.75783047
H        7.87904000       7.94127000      11.18460500      -1.44933664      35.71816577     -11.49496115
C        7.10658000       7.55652000       9.30001000      20.08551348     -27.08322229     -35.60013698
C        9.53562900       7.70868000      10.03625800     -68.01231166     -35.10124020      38.70692488
O        9.74404100       6.65280000      10.63784000       3.64629559       0.50670019      -0.36099508
H        7.11291000       6.46715000       9.51867200      12.10209839       9.70337657      -0.28892168
H        6.09640000       7.81184000       9.49292500     -28.51449910      18.43145141       1.87960845
H        7.36174000       7.67389000       8.21445500     -10.27697752      -1.97561942      10.33656073
N       10.37180670       8.37766000       9.33084300      44.65517289      57.06573407     -49.36826623
H       10.07968300       9.22667600       8.80918500       1.68112811      -8.51347811      10.68696166
C       11.76774000       8.09764000       9.23169700      39.49117640       2.41174527       4.00656780
H       12.00484000       7.18126000       9.79370670     -10.25129797     -10.13745233     -10.05679932
C       12.22732000       8.04813000       7.76248500      -2.33873570     -37.25479157      16.71730841
C       12.67865000       9.07087400      10.05460300      58.49902543       9.77187119     -47.56714218
O       13.90360000       9.26222100       9.75760180     -48.12588288     -16.71304231      10.32269590
H       13.30287000       7.78120000       7.75219500      -7.19704237      15.65741938      -4.91368303
H       11.71191000       7.18742000       7.27385500       1.19702048      12.16952648       2.46382725
H       11.94263000       8.98026300       7.28373500       7.54629382       5.93759461      -8.19034468
N       12.10897000       9.71461600      11.04799500     -18.82227364       7.78719816      37.00036606
H       11.10533500       9.64953700      11.21588500      -2.87242491      -4.69663330      -0.25808725
C       12.79746000      10.57493400      11.96976500      19.80004024      -4.97158349      22.14758069
H       13.52272000      10.16617700      12.72614500     -12.59329249     -17.14142993     -16.47342965
H       13.41233000      11.30621000      11.48696500       6.32816799      17.38720474     -17.66888589
H       12.05570000      11.04678000      12.57854500     -16.64525871      14.22400951       7.84695912
42
Lattice="20.0 0.0 0.0 0.0 20.0 0.0 0.0 0.0 20.0" Properties=species:S:1:pos:R:3:dft_forces:R:3 dft_energy=13.751027925405651 energy=-620659.2916249787 pbc="T T T"
H       14.92538000      13.02308000       7.36448000      43.01402762      12.18599837       1.72121761
H       13.38596000      13.91212000       7.23047000       5.70739108      10.94977717     -16.91580060
H       13.70763000      12.33391000       6.32402000      -4.71808231       3.90623148      -9.46243668
C       13.89559000      12.95307000       7.19296000     -47.61928341      -3.15593100      34.74466528
O       13.14113000      12.79243000       9.57546700       7.16347052      16.66184910     -23.44637138
C       13.34828000      12.28100000       8.45368000       0.13727009     -27.61707740      20.58417326
N       13.12549000      10.95890500       8.27662000      18.75271250     -41.54506692     -30.08904580
H       13.39377000      10.53060570       7.34123000      -9.25128839      27.76828697      30.33008049
C       12.94792000       9.76872000       9.19675000     -28.79914282      19.63330680     -21.53302518
H       12.47138000       9.14454000       8.40501000       2.76561833     -10.89505257      22.99534972
C       14.24884000       9.12534000       9.71540500     -30.56886363     -39.70270390     -87.88274256
C       11.85087000       9.84066000      10.33771680      25.28991943      30.23930735     -43.36740297
O       11.33281000       8.75737000      10.56312400     -13.26354433     -12.52598290      22.68392436
H       14.60009000       9.82102900      10.43507400      30.03074242       0.75044031      20.49885125
H       13.86779000       8.10859000       9.99074900      14.92258352      17.08549661      19.66767261
H       14.86589000       8.84053000       8.72659000     -11.43990475      25.91229613      52.16102170
N       11.53387000      11.05668600      10.87540100       5.42243924     -27.33302619     -19.49051093
H       11.97269000      11.94863000      10.47282700      -2.82709758     -26.05224793      11.63275620
C       10.59249200      11.08597000      11.96166000      34.60554299      37.41287431      43.96394606
H       10.80264700      10.32043500      12.74596000      -0.42984165      -9.62237991     -20.38982867
C       10.95742200      12.33524000      12.82022000     -43.97342629      40.21238444      16.72323355
C        9.12185200      11.04492800      11.68492000      18.99896131     -40.40151491     -47.58385108
O        8.41183000      11.71783000      12.36169000     -58.44297360      33.18528694      28.63833453
H       10.90425700      13.40214000      12.41322000       4.79631785     -32.97174489     -10.48453518
H       10.24375200      12.47053000      13.67598000       5.77608715     -13.09112275     -13.06789620
H       11.89659000      12.20683000      13.30293000      28.40381749      -4.78567630       2.82607846
N        8.67257000      10.14940900      10.71403400      10.73187422       4.82078868     -37.66575928
H        9.35472400       9.70107400      10.05407200      -8.14084606      12.87983226      28.63750501
C        7.34713000      10.30135100      10.04779000      12.23517703     -25.26313779      36.04547050
H        6.84504000      11.12519700      10.60129900       5.62113289       3.66770904     -14.18573311
C        7.42768000      10.51315460       8.53701000      55.21175777      45.13439821      -3.11535564
C        6.42499000       9.13822000      10.41985700       1.69802661     -16.99602700     -21.68411625
O        5.31975000       9.12985000       9.84727400      11.07440656      -9.82750826      25.23742269
H        6.52030000      10.39997040       8.04045000     -48.58816230      -4.59754126     -10.39588323
H        7.70101000      11.60542000       8.45645000      -2.23572121     -17.25246706      -8.60941798
H        8.14185000       9.97320500       7.82952000      -5.20551987       1.27747203      35.90137110
N        6.89679000       8.17270000      11.29724000     -49.70730274     -15.60942574     -15.74937755
H        7.86064000       8.05973000      11.53263000      15.39126209      11.36107668       2.23407403
C        5.91215000       7.10606000      11.75023000      29.96603989      41.12378947     -45.05500134
H        5.73140000       7.37031000      12.75600000     -10.40157137     -13.54285542      34.30881198
H        5.07462000       7.36760000      11.12810700     -23.26174401      -0.08274742      -2.17106609
H        6.17617000       6.08788000      11.46759000      11.15786808      -3.29743520      10.80893659
42
Lattice="20.0 0.0 0.0 0.0 20.0 0.0 0.0 0.0 20.0" Properties=species:S:1:pos:R:3:dft_forces:R:3 dft_energy=15.435626788064837 energy=-620657.607026116 pbc="T T T"
H        6.33214500      12.76401500      11.75325500      -2.36879986      14.46753277      -1.74828365
H        5.54561500      11.79642500      13.05847500       0.53297701       2.17683717     -27.98040698
H        4.68351500      12.00816500      11.42438500      27.89235940      -5.07142210      10.42387359
C        5.69883500      11.90673500      11.93211500      -7.73308978     -30.86962374      19.79138953
O        7.45221500      10.95795100      10.50389300     -32.17078447       5.63191664      18.86540866
C        6.56845500      10.75238800      11.38161500      35.01698471     -28.57979414     -20.96089366
N        6.47195500       9.42903100      11.83946500     -70.29242402      48.61423292      54.86679612
H        5.92754500       9.25700900      12.75862500      24.24804281       8.93948383     -48.91487452
C        7.05625500       8.30580500      11.18192500      52.98983028      -1.09773054      17.13491228
H        6.87386500       7.48403500      11.88100500       0.24321041     -10.14871009      -4.79065342
C        6.49947500       8.11112500       9.77710500      10.75066876      20.24288520      15.86100719
C        8.63012500       8.55271500      11.31417500     -17.28635886       1.41167645      18.70246731
O        9.10282700       8.95625500      12.38124500      -4.66135502      -9.51176940     -10.85284188
H        6.80459500       9.10514500       9.36604300     -17.46790515     -14.83418043     -14.61400223
H        6.95331500       7.27639500       9.19208400     -13.28523034       8.14722151      11.44349538
H        5.41992500       8.05377500      10.01601000       4.04406208      -4.66774232     -25.37784850
N        9.37443900       8.21095500      10.24552100      -8.55024953      -1.37120774     -60.06160334
H        8.95587000       8.25446500       9.26572600       6.77363186      -6.99635788      42.33891718
C       10.80917400       8.28508500      10.22858100      49.03527336      -1.72071990      52.72770209
H       11.11984500       8.60548500      11.33337500     -15.60764820     -10.28402844     -44.66619365
C       11.47875500       6.90784500       9.98949570      -0.69556285       0.75414826     -20.27345892
C       11.32044500       9.43435500       9.28866000     -38.32060575       0.56639717      11.40954433
O       12.06237500       9.27691500       8.32140500      -5.21495269      -5.55323078       9.30282526
H       11.34337500       6.16336500      10.76204600     -23.96126604      -3.17772367      12.76606957
H       11.23974500       6.43884500       9.01058100      -3.13982647       7.53427763       7.51736728
H       12.55630500       6.93390500      10.02738500      18.27775328      17.85671283      -8.16675077
N       10.73433600      10.64600900       9.64925500      47.08483579     -15.78303234     -30.40082666
H        9.94662000      10.70463700      10.26217600     -10.33043414     -11.61642652      17.25092652
C       10.83451300      11.83894500       8.77265500       8.45428597     -47.07345952      19.63389931
H       10.39064500      11.47633500       7.84421500     -11.61513484      13.99529911     -10.22097310
C       10.01739900      12.86869500       9.55275400      65.22488881      39.44294576     -11.23791672
C       12.30569500      12.11475500       8.16582500     -54.75279643       1.49925002      43.60227552
O       12.30249500      12.77862500       7.18154500       2.29773373      43.47369998     -75.44658478
H       10.29102200      13.83663500       9.03101400      -8.26359126      -8.42772949      25.31290897
H        8.97279500      12.75885500       9.48606100     -34.13117628     -12.40025143      -6.20469992
H       10.30422000      12.79979500      10.65679000      -2.58195084      13.07263632     -29.58173531
N       13.38888500      11.61408500       8.71246500      -5.33849186     -71.75759263     108.36156683
H       13.15599500      11.00679400       9.60817400      12.81406321      37.75854697     -52.33522082
C       14.56262500      11.12394900       8.03030500      -4.95090476      40.10336186     -14.13726547
H       14.91654500      10.24962100       8.51247500       1.30714513     -32.01305725       3.33242907
H       14.37041500      11.04579700       6.94152500       5.19859931      -3.60294726      10.42990539
H       15.31648500      11.86255500       8.25384500      20.53416508      10.86978778     -13.10249902
42
Lattice="20.0 0.0 0.0 0.0 20.0 0.0 0.0 0.0 20.0" Properties=species:S:1:pos:R:3:dft_forces:R:3 dft_energy=11.275981169543229 energy=-620661.7666717345 pbc="T T T"
H        5.39570500      12.58707500      10.74839800      12.63773104      19.79067852     -11.49662019
H        5.24167500      14.25026500      10.12686620       3.94654613       9.04524758     -11.21164465
H        6.72950500      13.73036500      10.98644300       9.82884734      23.24550913      41.34266414
C        5.97100500      13.46816500      10.30698000     -16.46786002     -54.63109405      -1.14713791
O        8.02515500      13.63246500       9.09176000     -35.06296379     -12.11513370      -8.71679337
C        6.94592500      13.00836500       9.24488600       9.93719445     -25.38223311     -28.72057547
N        6.62423500      11.77726500       8.59515000      35.60701015      45.70534470      -2.65400055
H        6.03647500      11.19881600       9.13193000     -25.29383002     -17.20435492      15.94467016
C        7.47378500      11.04081900       7.57782000     -13.57248112       0.31443651      41.97167700
H        6.88362500      10.05451600       7.36784000      23.18305816      39.74015078      -1.56852675
C        7.69215500      12.02470500       6.43254000     -23.30499754     -18.01112198     -36.23045337
C        8.79134500      10.54377100       8.26812000      36.21528502      11.76627331      26.26709351
O        9.14975100       9.38556200       8.10424000       1.49395294     -24.84517842     -11.08124417
H        8.50286500      12.72991500       6.71501000     -11.59967022      -5.24584637     -12.27214991
H        7.85382500      11.45680500       5.44912000       9.32968985      17.56247038      28.06229242
H        6.68999500      12.53918500       6.25294000      28.38687159      -4.18774673       6.85589651
N        9.54014600      11.38475500       9.10552000     -29.22907098      51.66046588     -22.15089877
H        9.20765700      12.42226500       9.11868000      10.65370977     -41.26196373       0.76908080
C       10.88895500      11.14537800       9.75594300     -57.81727882      20.99490396     -10.74791950
H       11.45386500      10.55823300       9.09836000      20.61249543     -24.73260076     -31.67899786
C       11.66160500      12.44461500       9.97616100      48.48826444     -23.73409617     -14.09507847
C       10.59900600      10.27954857      10.97328800       6.50609994     -28.99147287     -13.69714607
O       10.50292200      10.70958800      12.09719000       2.43890611      19.38930954      41.23743365
H       11.56834500      12.94442500      10.92336200     -23.76656594      14.06877085       7.95477297
H       12.70488500      12.04993500      10.12015640      -6.75364044       5.28556851      -5.10396297
H       11.78580500      13.09939500       9.06382000     -15.84204674     -11.12237649      20.90946345
N       10.47202000       8.93582500      10.68436100       6.10686401      10.83431989      20.86431388
H       10.38021700       8.70399500       9.69981900      -1.38359128      -9.38806432      -3.72935420
C       10.49045400       7.90400500      11.72129000      -3.93885530     -18.69464612      36.32418909
H        9.84522450       8.11899500      12.67140000      24.48765547      11.02955325     -35.32426247
C        9.99204600       6.58660500      11.21736000     -51.68736601     -39.10770134      -6.14299552
C       12.02906500       7.53074500      12.19802000     -24.73425980      26.04525627     -42.93415674
O       12.68801500       6.71668500      11.57830000       6.42011431     -20.20366077       0.24080717
H       10.10372900       5.74973500      11.92219000       2.22413164      10.29427893      15.25581339
H        8.90345900       6.44353500      10.89296200      24.15537362      22.17981346       7.37490322
H       10.57539400       6.17582500      10.43211900      19.44773142       1.02451595     -30.28528643
N       12.53003500       8.35964500      13.10678000       9.82358581      10.42094657      32.54750487
H       11.82060500       9.01716500      13.50642000      26.72084073     -11.34359752      -3.12010761
C       13.88764500       8.15551500      13.74806000     -27.60143503     -20.16431784     -17.69448250
H       14.12541500       7.07698500      14.01064000     -19.00595298      23.78114178       1.60835554
H       14.75832500       8.45057500      13.16915000      -2.75745349       9.00961378     -18.17477434
H       13.79468500       8.84003500      14.55088000      11.16744311       7.17863888      34.44757876
42
Lattice="20.0 0.0 0.0 0.0 20.0 0.0 0.0 0.0 20.0" Properties=species:S:1:pos:R:3:dft_forces:R:3 dft_energy=-4.072074131690897 energy=-620677.1147270357 pbc="T T T"
H        7.37278500       7.27728000       8.12063500      -9.94449422      36.69510285      21.78188105
H        6.58591500       8.97555300       8.76422500       2.45657488     -39.41296456      -5.31955511
H        6.17338500       7.21094000       9.32988800     -15.71418222       5.88098583      10.62377597
C        6.93641500       7.90682000       8.99683800      43.10041616       0.69116284     -18.05911561
O        8.75900500       7.01944000      10.37976600      -8.37466394      17.79580239      -4.84273540
C        8.01932500       7.98658000      10.12379400     -31.48240171      -5.11952239      -2.84458860
N        7.89416500       9.15764400      10.86579500      54.53486978     -57.29859207     -12.81418171
H        7.19231500       9.72445600      10.48067500     -21.84326551      34.96804305       1.86006734
C        8.53418500       9.27858300      12.19501500     -12.15269908      50.24542395       8.80263680
H        8.21431500      10.29446700      12.65853500      12.96752433     -29.36771926     -22.29535368
C        7.88169500       8.20904000      13.05390500      28.43818330     -37.88309341      11.52401803
C       10.14437100       9.40091800      12.13268500     -13.53740430     -32.05844382       7.81402719
O       10.75753700      10.27256900      12.70241500      -1.67202710      41.99431103      15.12119421
H        8.32190500       7.17919000      12.79514500     -21.07595988      27.27413030       5.71294886
H        8.07361500       8.35045000      14.12518500       2.46942059       3.58703234      -0.01454823
H        6.79329500       8.24583000      12.90472500       3.30932103      -4.34350681      -1.07332844
N       10.80014800       8.39672000      11.50723500     -24.44108387     -43.17649496     -34.48526265
H       10.17152100       7.58377000      11.18282500      23.37918029      26.16423308       2.66681070
C       12.23654500       8.44954000      11.15056500     -30.69506911     -21.64441781      -4.64366255
H       12.55387500       9.25608600      11.78605500      21.63078999      10.31043086      10.62323085
C       12.93636500       7.11385000      11.44268500      27.79175053     -11.77311092     -10.96201851
C       12.52529500       8.97032900       9.67407300     -39.03932523      19.28443456      23.32111392
O       13.65217500       9.17564400       9.24563000      11.99082426     -10.79508361      -3.17213034
H       13.23300500       6.96163000      12.52803500      -1.23388670       9.30454355     -27.82670885
H       12.47081500       6.15175000      11.12055500     -17.48165147      18.46534321       4.62624264
H       13.78857500       7.10424000      10.70660100       3.43916454       2.89840072      27.13417849
N       11.39060100       9.39603090       9.03339300     -14.37332304      -1.66259428     -22.91654536
H       10.45042500       9.32234700       9.53188100      38.60963408       0.14237163     -22.90433957
C       11.44628500       9.85811900       7.59469500     -44.69392331      36.45857126      18.24978662
H       12.37848500       9.63700600       7.14303500      24.80808704     -33.06251804      -4.98649115
C       10.22858100       9.34327800       6.77271500     -11.86876638      14.61613528      25.46459255
C       11.58892600      11.44805000       7.46154500       5.72741805     -21.85558980       7.38520111
O       10.67098130      12.18537000       7.13343500       5.10312160       3.29557470       3.17759331
H       10.01039800       9.98945500       5.87481500       9.41270106     -18.09277041      15.64213252
H       10.38213200       8.28320000       6.58280500       1.55795630      -4.62907485     -13.55600923
H        9.28993500       9.35716300       7.41230500      18.82428819       6.82576125     -11.69209055
N       12.91560500      11.81305000       7.65410500     -33.44931118      57.96078571      -2.03798744
H       13.47327500      11.14786000       8.13620500      17.21904927     -20.64674274      12.28388168
C       13.21185500      13.26356000       7.92904500       2.43251881       5.18409456      -5.25634572
H       13.82055500      13.75592000       7.12196500      -8.01547010     -14.79839258       7.17106655
H       12.23798500      13.84825000       7.94828500      21.47116671     -17.73512896       6.60827306
H       13.82661500      13.38084000       8.87271700     -19.58507616      -4.68667906     -15.89169941
42
Lattice="20.0 0.0 0.0 0.0 20.0 0.0 0.0 0.0 20.0" Properties=species:S:1:pos:R:3:dft_forces:R:3 dft_energy=21.549499267712235 energy=-620651.4931536363 pbc="T T T"
H        4.49750000      10.06009100      11.82742000      23.56748124      -1.58100510      10.54940361
H        4.88529000      11.72191000      12.20143000      29.94174682     -29.29875063       6.36126582
H        6.10274000      10.32726700      12.78953000     -14.87067929       8.79487486      -9.56222789
C        5.40663000      10.70939800      12.00205000     -35.74684345      11.82672158     -20.76868212
O        6.37708000      12.06807000      10.28164375       2.82389801      11.90147315       0.13851318
C        6.07740000      10.93303000      10.63559900      -0.30059776     -28.48736196     -21.70840932
N        6.24858000       9.84354660       9.73152600     -30.97603925      43.24653012      28.05885584
H        6.26007000       8.91166000      10.10603400      -4.42035587     -10.06983463       2.84614098
C        6.71286000      10.00751180       8.32558000      16.26166515      41.66925786      62.03005334
H        6.44385000       9.14520100       7.80387000      -3.97127766     -40.55307999     -16.28477320
C        6.29322000      11.19578000       7.51146000     -37.53599872     -20.78610203     -14.78654230
C        8.19470000      10.10540600       8.54769000       3.37884662     -26.95180268     -31.58384011
O        8.94505100       9.19831800       8.18107000       6.70956925     -26.42375421      -2.16237983
H        6.78693000      12.10603000       7.78171000      -4.72596274      16.32293110       3.41572469
H        6.64241000      10.85115500       6.55235000      10.99785375       7.55787154     -22.68736095
H        5.19089000      11.23336000       7.33659000      11.11777859      10.50862680      12.94595682
N        8.70290900      11.20055000       9.10070000      -3.48662491       8.72921246       9.61835081
H        8.12074000      11.98310000       9.49503200       9.49801122     -23.99112874      -9.95415220
C       10.12861000      11.27492000       9.14995000      58.83344033       6.19666543       1.96829595
H       10.73555000      10.63465800       8.33958000     -43.13324144      31.84561279      23.15698754
C       10.37153300      12.79927000       9.00084000      47.99896638     -22.97982585      10.09345224
C       10.80328000      10.68891500      10.47281600     -26.72095923      38.37440602     -17.74697924
O       11.52769000      11.38240000      11.14425500      41.91621769      29.89576773      22.40117668
H        9.74646800      13.34966000       9.69883600       9.96792222       6.03916336      16.83829977
H       11.48126000      13.06512000       8.97838000     -32.98193613      -2.00885946       9.92938511
H        9.94837400      13.04415000       8.06902000      -8.52023277      10.02659296     -39.30180893
N       10.45009000       9.47872100      10.84418100     -53.59016546     -78.79097078     -22.12411714
H        9.74559300       8.98298600      10.19563440      34.17454831      16.43823432      23.37894328
C       10.90091000       8.69623000      12.01415000       0.82157754      17.41588242      12.32938676
H       11.30292000       9.42780200      12.87114000     -23.77948274     -28.24928983     -41.40096752
C        9.71506500       7.83643000      12.54850000      32.79043561      95.30516540      64.84745740
C       12.03359000       7.77661000      11.64535000      43.74957450      30.86630566      18.18958719
O       11.90971000       6.65034000      11.20391600       0.66655218      -7.44361114      -7.14104979
H       10.15724200       7.32666000      13.44765000     -17.56175936      -6.96719434     -20.74035995
H        9.24743200       8.82372000      13.02178000     -17.81499984     -56.11391958     -19.21392539
H        9.20163700       7.26207000      11.80253000      -9.44233861      -7.45568658      -4.19582862
N       13.26672000       8.36613000      11.98895000      -4.36724292     -16.68069105       3.09656110
H       13.31958000       9.36013100      12.20201000      -7.61136370      -2.90568864      -1.32877189
C       14.48194000       7.72567000      11.55404000      45.97043546     -20.21740710     -21.69122641
H       14.40227000       7.69369000      10.45283500       7.03924404     -11.61099909      -0.51494443
H       15.50250000       8.24581000      11.71407000     -41.95366457      -3.13820298       8.60670427
H       14.65154000       6.65205000      11.91977000     -14.71378158      29.74384714      -5.90219783
42
Lattice="20.0 0.0 0.0 0.0 20.0 0.0 0.0 0.0 20.0" Properties=species:S:1:pos:R:3:dft_forces:R:3 dft_energy=-5.090668792836368 energy=-620678.1333216969 pbc="T T T"
H        7.30746500       7.28590500       8.16492500      -0.13370908      25.17485321       6.51260575
H        6.52538500       8.89089500       8.73869500      -7.58185651      -2.39785674      -8.42364114
H        6.15882500       7.21254500       9.32366400     -41.26480780     -16.57937116      22.81261840
C        6.88217500       7.89941500       9.01076300      63.80700282      -3.69611416     -16.57166847
O        8.67314500       7.02040500      10.39540700       4.35285668       5.54709234      -0.80175913
C        7.95101500       7.97997500      10.12718700     -39.88425019      16.84789850       3.66032632
N        7.83792500       9.16463800      10.87302500      36.31731593     -36.71275977     -14.44916483
H        7.07937500       9.75120200      10.55637900       1.22429982      10.55653748       7.98014442
C        8.47378500       9.28973200      12.23364500     -13.75592346      31.22726518     -17.17745478
H        8.14395500      10.30226500      12.63144500      10.36944526     -21.51548676     -10.24819319
C        7.82106500       8.19708500      13.07402500       2.26934046      -6.42454632      10.39886950
C       10.08483900       9.42151640      12.15612500     -29.09551833     -88.84913289     -30.41078090
O       10.69934500      10.26906900      12.69188500      26.08661375      83.19619385      42.84907173
H        8.26214500       7.20997500      12.84170500     -10.70803146       4.62644409      -1.90058345
H        8.00325500       8.36539500      14.13830500      -0.48869843       2.36922647       4.73276480
H        6.70595500       8.22650500      12.88907500      23.73670323      -4.76407324       4.63313950
N       10.75696100       8.39615500      11.49296500     -35.98906317       2.30246199      -4.00578568
H       10.14039400       7.63079500      11.17986500       8.65173533      -0.55266625      -6.47742227
C       12.15784500       8.46492500      11.15678500       5.45673395     -12.79000714      -9.75562446
H       12.53505500       9.30597800      11.75759500       8.85838051      -7.87798315       6.98927141
C       12.88517500       7.12396500      11.43049500      27.75240760      13.19030960      -0.48394410
C       12.47208500       8.99290600       9.69978200     -48.35791136      17.15553177      -1.29592291
O       13.59711500       9.18331400       9.25352600      11.86201172      -7.73262762       2.51784083
H       13.15241500       7.01341500      12.49593500      -0.48339188       1.80841197      -6.40140272
H       12.48431500       6.17701500      11.09335500     -31.95973099      -2.26361677      -1.44555640
H       13.79144500       7.08397500      10.80628900       9.44283632      13.03139734      10.03678420
N       11.33200200       9.39729710       9.02557900     -21.63280453      -7.00031587       1.17497066
H       10.38376200       9.31217200       9.55637700      49.42443656       3.00196032     -31.78541337
C       11.37062500       9.86193800       7.59972500       8.09289983      27.20433215       5.94420707
H       12.37915500       9.65180300       7.15879500     -17.55512321     -24.80820555       8.62446784
C       10.16202100       9.34877600       6.78476500       4.23816967      22.82245414      -5.40436757
C       11.52733000      11.44869500       7.48744500     -15.93578245     -15.05009253      -0.43700396
O       10.58401570      12.18378500       7.15712500      26.01136447      -6.03149623       9.95127258
H        9.98212100      10.03447000       5.86169500       8.13853526     -31.16742127      30.92674208
H       10.30407700       8.28131500       6.57233500       0.36763479       2.89623212     -10.18449794
H        9.25562500       9.39892690       7.41432500       1.78225840       5.32311020      -3.48760849
N       12.84426500      11.81867500       7.67380500      21.65223899       2.33851054      36.57197844
H       13.50478500      11.10571500       8.19881500     -40.72348701      32.33479235     -30.37226749
C       13.15253500      13.27486500       7.93007500      25.61663164     -17.13941539     -11.70920236
H       13.74858500      13.72347500       7.07861500      -8.39893331     -13.09349281      13.33926761
H       12.18787500      13.82298500       7.90918500      10.02399775      -3.98783250      15.85413402
H       13.84117500      13.31442500       8.85161600     -31.58692118       7.47939899     -22.28113335
42
Lattice="20.0 0.0 0.0 0.0 20.0 0.0 0.0 0.0 20.0" Properties=species:S:1:pos:R:3:dft_forces:R:3 dft_energy=7.155512268887833 energy=-620665.8871406352 pbc="T T T"
H       10.25180900      13.01931500       7.59506000       7.89874484     -18.90629212      -0.16960239
H       10.27235400      11.42248500       6.78160000      -3.66429616     -17.92331140     -37.98547983
H       10.74679500      11.47040500       8.43736000       2.86565840       7.73973779      -2.48874839
C       10.06923000      11.91202500       7.68189000       3.35182798      48.71887089      43.43281652
O        7.90685500      10.89685100       7.85174000     -25.15186366     -19.56184961     -18.48240761
C        8.68557100      11.74472500       8.23416000      10.09413955       0.71948501      34.61004610
N        8.43767900      12.39498500       9.44141000     -19.16000662      23.19111635      19.71175565
H        8.99550600      13.17138500       9.82126200       5.38201794     -13.70236019     -18.87915498
C        7.12704500      12.34878500      10.26237300      32.56990190      19.24355109     -49.54910150
H        7.29471500      13.13171500      10.99654900       1.86298251       6.56422557       6.80798583
C        5.88809500      12.76065500       9.44089000     -38.82128008      -0.90020296      59.75065199
C        7.04789500      11.08669900      11.08436600      16.71624189     -14.59231622     -16.63648950
O        6.34262500      10.95242500      12.05180000     -35.84235671      15.79239406      30.60453297
H        5.32216500      11.90368500       9.08033000       2.01935880      -2.75177721      -9.07003836
H        5.19810500      13.26849500      10.20458800      11.84985333     -17.91904530     -15.56771276
H        5.95635500      13.54470500       8.71056000      19.93430391       4.01306175     -16.69218582
N        7.92923500      10.10775640      10.73028900     -19.31145320     -34.44947480      57.14951555
H        8.28293500      10.14392830       9.83091300      18.56168598      -4.85299774     -54.29774568
C        7.82351500       8.80961500      11.43868800      -3.33427772     -18.88614665      30.34572286
H        7.23232500       9.06375500      12.40033000      14.22389101     -13.30407228     -33.12354698
C        7.16949500       7.66090500      10.57873740      59.09331697     -11.84380969      -1.74466931
C        9.18245300       8.22356500      11.88074000      38.29951225     -52.58478771      27.67490677
O        9.36598180       7.12534500      12.51474000     -23.43096601      60.64771819     -36.13529563
H        6.14265500       7.77234500      10.59567420     -54.68927893      10.32841959     -12.11513370
H        7.64179500       7.71563500       9.57692800     -14.36336881       5.73613986       0.27537681
H        7.36229500       6.57747500      10.84817200       4.03370494      29.21259909      13.74916880
N       10.25692600       8.93481500      11.42493000     -13.51394074     -13.95275661      -0.42743841
H       10.02360100       9.83657700      11.08412200      -5.06791442      23.08055323     -14.18265204
C       11.64779500       8.53444500      11.32333000       4.88911740       3.29475703      10.91306500
H       11.96604500       8.23834500      12.36741000      -0.70809096      -2.85846528     -22.01805713
C       11.92014500       7.42655500      10.25406800       9.14337974       6.57764008       6.62382062
C       12.37807500       9.88399300      10.96199000      64.67539133       1.55683053      15.47148848
O       12.60523500      10.36165200       9.85869400     -28.74818662      -4.07185099     -17.47300077
H       11.63717500       7.86328500       9.28888000     -12.82804654      -5.67552567      -1.72316106
H       13.02254500       7.28739500      10.08278300     -15.28247652      -4.10114488      15.50585430
H       11.39131500       6.45529500      10.49852620      12.24655330      24.57700658      -6.89907893
N       13.07462500      10.38386600      12.05301000      -3.26666002      18.06385572      20.27203689
H       12.76800500       9.92223600      12.89207000       4.93602080       2.46058028      16.42472500
C       13.78487500      11.71433500      12.22077000     -51.59078623       5.09426944     -54.94429695
H       14.80189500      11.71624500      11.84868000       5.81231345      -6.00311481     -13.38963130
H       13.15982500      12.54056500      11.68100000      25.67979364     -30.51636689      11.77705706
H       13.86021500      12.06904500      13.21840000      -7.36424982      -7.25500209      32.89412556
42
Lattice="20.0 0.0 0.0 0.0 20.0 0.0 0.0 0.0 20.0" Properties=species:S:1:pos:R:3:dft_forces:R:3 dft_energy=12.921403314569034 energy=-620660.1212495895 pbc="T T T"
H        9.79140000       7.03418500      12.73326500      -3.24178628     -26.46321564     -10.16123584
H       10.49159500       5.79655500      11.53121500      13.82655113       9.44346438       6.79102807
H        8.98833900       6.54571500      11.13740700      30.39715307      20.60502975      13.56584497
C        9.99728700       6.76921500      11.66976500     -49.13588224      -0.96278192      -8.97861345
O       10.97494500       8.42136500      10.09889100      11.04421205      -2.06749464     -44.92417425
C       10.71430500       8.02070500      11.20816700      -7.86699794      11.58611350      54.13741139
N       11.05526500       8.80891500      12.32095500      -9.25362290     -19.62240454       1.50031654
H       10.52270900       8.69535500      13.19494500      12.41245722      -2.45286574     -13.10427656
C       12.03118500       9.87837900      12.31952500      59.41244500     -33.13444924      37.71944105
H       12.27355500      10.05219700      13.39028500     -11.23917285       0.64791643      -6.96791720
C       13.46564500       9.47122900      11.77087500      20.85720371      -5.12788869      -0.08950907
C       11.46371500      11.13802700      11.89154500     -80.02671798     112.59863443     -34.92253798
O       11.00547500      11.99862500      12.71456500      33.09155122     -43.40461285     -28.89524859
H       13.89270500      10.28820500      11.11781000      -4.75904872      -8.08955805      23.06396284
H       14.23791500       9.19096800      12.67576500     -43.76284681      13.55814228     -52.45028704
H       13.37717500       8.65391500      11.00885800       2.64316939       2.82375581      19.87730406
N       11.23226500      11.33943500      10.48086370      16.68756421     -18.82725076      53.82491951
H       11.32379500      10.39691900      10.06038100      -4.37665204      16.79741631     -15.66073745
C       10.37590500      12.46758500       9.98610200     -31.36271388     -50.12715816      31.11682057
H        9.97721900      12.97224500      10.90925600      16.75712535      -3.04360220     -13.53266418
C       11.12898500      13.32460500       9.05679500      -5.92004435      23.35192464      -8.10669355
C        9.06672100      11.95901500       9.35708500       9.53452193     -26.20796061       2.72390535
O        8.10573500      12.70769500       9.38019500     -16.14505840      19.60830271      -2.68295078
H       12.03065500      13.52017500       9.59678500      21.31201746      22.40804985       1.12423132
H       11.37897500      12.74131500       8.20809500      11.89116341     -17.07127628     -26.94919562
H       10.57609500      14.20344500       8.65445500       7.23623124      -5.59839220      15.77473715
N        8.95991000      10.67211600       8.82204500      26.05307745      -5.50491719      39.68149190
H        9.68180100       9.95641000       9.12100500     -20.78017689      23.56155610     -11.64291189
C        7.58145500      10.14901060       8.74774500      32.47083356       1.06313838     -36.28129108
H        7.04214500      11.12984400       8.70538500      -9.69365934     -19.05868672      -7.91488492
C        7.54242500       9.26613900       7.45104500      15.69581428      -4.57533383      -0.29633047
C        7.09620500       9.37845600       9.94384200     -35.65156720     -26.18378604     -21.05368135
O        6.46048500       8.33697500       9.68270900       7.33950643       2.04273941      20.36363955
H        8.41691500       8.52092500       7.35231500     -23.52126514      22.17068874      14.78049866
H        6.62494500       8.67623500       7.32696500       1.09463524       6.75929303       2.61341334
H        7.68730500       9.95044800       6.60971500      -4.01659313       1.46705281      -4.23002853
N        7.12860500       9.89898200      11.17875000      44.45502166      79.81151689       4.05949115
H        7.62717500      10.83940600      11.41776100     -22.02101970     -47.94481060     -28.21954563
C        6.37282500       9.43055000      12.28470500      12.56260027     -31.04512638      -3.65986416
H        7.13530500       9.11882500      12.99146500      -4.86252537     -12.08787805      20.70931222
H        5.82043500      10.24253240      12.70291500     -19.07966172      12.67991804       9.95249316
H        5.76208500       8.57934500      11.93909500      -0.05807324       5.61718675       7.34435320
42
Lattice="20.0 0.0 0.0 0.0 20.0 0.0 0.0 0.0 20.0" Properties=species:S:1:pos:R:3:dft_forces:R:3 dft_energy=-2.4082158842356876 energy=-620675.4508687883 pbc="T T T"
H        6.38201000       7.76419500      11.73765500      14.68012679     -19.45519709      -4.20805811
H        7.06528000       6.07424500      11.76590500      11.22712112       3.79821618       4.64533344
H        7.04884000       7.03322500      10.21749300       9.21219432      -0.58112232      38.79236539
C        7.21788000       7.08492500      11.36608500     -35.12055616      45.14802604     -32.23086539
O        9.49536980       7.47725500      10.86468500      44.05874830      -1.94410953     -35.71354416
C        8.57518200       7.78408500      11.58916500     -28.80281641     -38.96526098       8.91047434
N        8.73552900       8.59089500      12.64026500     -10.18063475      38.22153741      63.47081038
H        7.97466000       8.87088500      13.27312500      -3.57341637     -14.40591131     -21.25181803
C        9.97736200       9.23222300      13.20457500     -18.56500406      32.98229164     -30.75052842
H        9.62036240       9.80277700      14.16835500      19.17090888     -26.92134746     -37.33312192
C       11.10060000       8.26082500      13.37970500     -39.46771285     -41.35783250      63.94861366
C       10.37188900      10.43144500      12.23468500     -13.01231839      50.60934605      40.44725699
O       10.07317100      11.59071500      12.65591500      15.10175975     -46.47182081     -33.54399491
H       12.00315000       8.78027500      13.69017500       6.23572396      -6.01356676       7.77430505
H       10.67032000       7.43303500      14.13796500      31.30369949      39.95203379     -19.64966019
H       11.23434000       7.62881500      12.54156500      10.19228357      -7.05645065     -32.65759397
N       11.05552000      10.14819930      11.08150500     -12.29490244     -23.82842440      24.43515873
H       11.31961000       9.14432800      10.97129500      -8.59241283      21.73128036      -1.47172182
C       11.59425000      11.07022500      10.13709600       5.15963559      15.92796127     -40.25694149
H       11.62592000      12.13277500      10.42266900      -1.46696985      -7.93134496      20.22961289
C       13.02022000      10.60553200       9.74138330      -1.08828231     -26.32089378       7.38614913
C       10.76565000      11.25136500       8.74392500      31.63479631      -7.31553332      -9.45231654
O       11.05732000      12.16649500       7.94442500      -8.13226646      -9.59297937      27.10076070
H       13.81998000      10.74351600      10.51919200     -17.63037248       8.98924315     -10.54440279
H       13.02143000       9.47782100       9.58507300      -3.17099271      23.43878720      -4.24578940
H       13.25067000      11.10811500       8.80371300      11.55040861       0.38209332      -2.57383340
N        9.92938200      10.25320800       8.41684500       0.59129342     -17.18883105     -17.18764602
H        9.82039800       9.46797500       9.06154300      -1.09834675       3.50015793      -0.17097110
C        9.31644200      10.06381424       7.04300500       8.20999245      17.24725293      32.11402163
H        9.97884600      10.44797800       6.22888500       0.30611525       1.14783352      17.42974724
C        9.08226100       8.57994500       6.79716500      11.53013278      17.50428550     -13.64571585
C        8.03898000      10.91667500       7.02364500       4.26152657     -20.17735315     -32.60189766
O        7.08828000      10.44236800       6.38333500      -5.73719453       5.97711530       8.87698545
H        8.46563000       8.10142500       7.50733500     -25.07068925      -7.80192806      27.43031699
H        8.59928200       8.44277500       5.83164500       2.69823764      -1.16929201      -5.94148151
H       10.03320700       8.06421500       6.86362500      11.08924311      -4.48909935      -8.11473990
N        8.03299000      12.16076500       7.56312500       6.36656290     -12.09273667       6.58061450
H        8.85564800      12.54128500       8.07511500     -18.50871523      -9.23102442     -13.67107545
C        6.70553000      12.76949500       7.60790500      55.05118648      75.68631594      45.73248184
H        6.90319000      13.92575500       7.48643500     -18.85024030     -43.77019399      -2.43994894
H        6.18002000      12.29848500       6.82845500     -29.62261878      -6.68060717     -20.38816963
H        6.32059000      12.64026500       8.64614500      -9.64494284      -1.48114279     -15.25901296
42
Lattice="20.0 0.0 0.0 0.0 20.0 0.0 0.0 0.0 20.0" Properties=species:S:1:pos:R:3:dft_forces:R:3 dft_energy=5.4040825348347425 energy=-620667.6385703692 pbc="T T T"
H        7.43784000      12.06515500      13.16897500       7.81492781       4.67460363       8.46983353
H        7.61296000      10.35733900      12.60721500      41.55596918     -45.64870036      15.28875717
H        6.11408000      10.99388100      12.53491500      12.00303005      17.58095682      -1.66036642
C        7.20243000      11.29255700      12.46113500     -61.82196242      22.65335064     -57.52872451
O        8.31951000      12.78545500      10.89415500     -30.87590438     -32.10679296      -2.44193979
C        7.54295000      11.78070100      11.00403500      44.21908259      43.18550117      49.47930335
N        7.08657000      11.11027100       9.95322200       5.15873497      -7.57026693     -22.21441627
H        6.67362000      10.21247700      10.06075900     -10.43824798     -17.52134991      12.23102943
C        7.24677000      11.47111300       8.53823500     -22.91784889      22.85764947      -0.18154747
H        6.60603000      10.78448250       7.96319500       6.51945521      -3.57948371       6.33337026
C        6.63346000      12.85481500       8.29542500     -11.20554176      46.43875853      -8.32868485
C        8.58419000      11.42157300       7.87538500      32.49251957     -39.26412504     -44.98555870
O        8.68821000      10.79042890       6.80422500      -1.12117276      11.51832990       7.73003241
H        5.86007000      12.95309500       9.09207700      -1.98873768       5.25663013     -18.72237578
H        7.27772000      13.80543500       8.39706500      -7.54772770     -37.46679308       2.78544385
H        6.21530000      12.94808500       7.24377500       3.20471861      -7.32500169      26.05912110
N        9.59045400      12.08097500       8.46695500     -41.74249259      10.77425082      54.90530953
H        9.25970300      12.44857500       9.39394900       9.74341867       4.38188986      -9.11454801
C       10.90054100      12.43328500       8.09171500      34.28807399     -48.02503700      27.76686494
H       11.07061000      12.10099500       7.08493500      -2.58632360      10.44177937     -27.99119074
C       11.14071000      13.87799500       8.36670500      66.33111244       5.55957068      13.70710030
C       11.99994000      11.48631900       8.77599400      43.22105201      51.69708324     -26.20215398
O       13.22844000      11.78751100       8.67130500     -46.62563744     -10.30061883       5.15829650
H       10.43479900      14.35485500       7.76514500     -19.17375294      36.83742471     -30.33197653
H       11.00533500      14.26135500       9.39040300      -7.48626030     -16.44463347       3.76188322
H       12.24318000      14.11992500       8.16652500     -33.32322420      -2.29377574      -6.86896737
N       11.53570000      10.40402800       9.36242300      34.34969545      -6.90701861      14.28622348
H       10.56939300      10.18658000       9.30320600     -25.53770878      -8.17249816       5.18447377
C       12.41815000       9.51035500      10.11514900     -47.16518069      40.05643476      49.16136034
H       13.09770000       9.06622500       9.45565000      28.64508918     -21.99483059     -25.37618946
C       13.22887000      10.22441700      11.24496500      55.27681581     -21.56478393     -55.10000963
C       11.46829000       8.53744500      10.78181500      83.57516580     -43.68724203     -12.18481334
O       10.30807500       8.56904500      10.51764100     -79.39675710      -4.75227036      12.84807351
H       13.61152000      11.10395000      10.71457500       9.33376634       2.79830140       4.49855587
H       12.77189000      10.59123200      12.14385500     -14.30459142     -11.83075068      14.64279841
H       14.13993000       9.49708500      11.33325500     -30.96975860      32.56978340      17.19380817
N       12.10783000       7.57391500      11.55078500      -9.10555365     -29.35693550      20.38793263
H       13.06661000       7.25743500      11.36342500      -8.58589518      23.29990192      -2.17092388
C       11.34783000       6.47437500      12.29088500      27.28669160      28.05790781     -46.95353469
H       10.48389200       6.30498500      11.64615500      -3.23685656     -20.67944951       1.60760898
H       12.07081000       5.64514500      12.48146500     -18.90451458       7.55636655      -7.16534287
H       10.99211600       6.88700500      13.19577500      -8.95740145       8.29596623      32.03616529
42
Lattice="20.0 0.0 0.0 0.0 20.0 0.0 0.0 0.0 20.0" Properties=species:S:1:pos:R:3:dft_forces:R:3 dft_energy=3.1687051110202447 energy=-620669.873947793 pbc="T T T"
H        7.19215500       6.77272500       8.91518800      -6.21444085     -11.64297114      -7.66349309
H        6.02245500       7.26168500      10.23912500      39.90107759     -34.63398366      -7.89497645
H        7.00393500       5.60507500      10.31221700     -14.07908059     -12.67268937      -5.90175937
C        6.99828500       6.63200500       9.97853700     -16.44842556      56.74364346      16.90963846
O        9.33460500       6.59005500      10.36518400       6.70863308       2.57744774       2.82233377
C        8.27798500       7.18365500      10.62265000     -13.38157311      -4.35823670       4.62961997
N        8.11082500       8.25247500      11.44944000       5.69040962     -23.37977280     -19.67786385
H        7.11191500       8.40878500      11.46202000       0.44981056      23.36709300      18.84644821
C        9.13840500       8.89156200      12.29389000     -12.00184502     -18.46498770       5.22144665
H        8.75170500       9.81145300      12.70667000     -11.41209214      12.84416292     -11.14315004
C        9.44578500       8.07570500      13.54688000      23.93104782      -6.49135820      12.01713188
C       10.42595900       9.34083100      11.59878000       9.44115358     -14.43245594      -2.75219197
O       10.70275700      10.48006500      11.93631000      34.01930964      21.40196108     -11.54812150
H        9.74960800       7.05085500      13.24933000      -3.52195060       6.32720812      11.55093002
H       10.24323200       8.55555500      14.18982000      -6.63248318      -8.36694940     -22.51197680
H        8.60277500       8.10652500      14.23482000     -12.54956496     -11.19117922      -2.14019611
N       11.17065000       8.42265500      10.85337000     -29.51655877      18.70779994       4.76881335
H       10.52865011       7.56084500      10.62895000      32.13878872      15.40583793      -0.54610001
C       12.49316500       8.71058800      10.24470300      14.28966007     -14.34760793       1.45524993
H       12.95995500       9.59145400      10.77726000     -13.24256933     -16.02548907      -4.88071555
C       13.44439500       7.43256500      10.45653200     -36.90627484      21.32149768      27.92933228
C       12.48525500       9.23021900       8.73828500     -10.33844493      12.61094941      -2.99646179
O       13.47350500       9.34655600       8.01195000       4.91774767     -11.23225229      12.53344858
H       13.97016500       7.60581500      11.40863000      23.65647684       7.92000424     -15.91480746
H       12.86704500       6.59105500      10.86197000     -14.22009892      -4.19717955     -18.70424485
H       13.97754500       7.13585500       9.56002430      12.57788713       3.86592868       1.97068970
N       11.27131300       9.71957900       8.36499000      11.02952955      -5.14609072     -15.63123026
H       10.54012590       9.52571470       8.98788400     -30.99334066      -5.44288098      26.26721201
C       10.84751600      10.23859100       7.06073000       3.76824682      -0.89463570      12.98138916
H       11.62047500       9.89237900       6.33997000       0.99594730      18.04643581       5.07649402
C        9.55150400       9.60504700       6.58595000      -4.13292733     -22.73428805      58.58091086
C       10.62039770      11.76882500       7.19790000     -17.46174300       3.16833825     -29.21129556
O        9.46693500      12.22269500       7.19033000      10.97630994      -0.80870102      13.66906091
H        9.21767500      10.11886400       5.76518000     -15.94075957      29.06612963     -58.27304059
H        9.82694300       8.59320400       6.32420000     -10.45589305     -15.82758940      -1.93643054
H        8.63902500       9.67487400       7.26838000      30.93562979      -6.13257912      -5.10966296
N       11.72056500      12.54301500       7.16392000      47.32847754     -89.69050277     -12.10814203
H       12.64815500      12.05589500       6.99525000     -36.14536836       7.14978345      10.88558420
C       11.85057500      13.89242500       7.38758000     -28.86597840      58.82585615      15.62352758
H       10.81734600      14.39492500       7.24518000      36.90971142     -10.24073937      -1.04525394
H       12.16314500      14.06884500       8.44807000       0.38907195       7.38651649     -12.00694064
H       12.63168500      14.19219500       6.67401000      -5.59365209      21.61858420       5.85902726
42
Lattice="20.0 0.0 0.0 0.0 20.0 0.0 0.0 0.0 20.0" Properties=species:S:1:pos:R:3:dft_forces:R:3 dft_energy=17.869192313286476 energy=-620655.1734605908 pbc="T T T"
H        3.87184500      12.50363000       8.30302000      -6.57034031       4.16703244     -18.96554352
H        5.44413500      13.40591000       8.18815000      16.38123448      37.05855094     -24.40197795
H        4.55966500      13.07372000       9.72767100      18.02617183      -3.78153098     -11.27545841
C        4.85903500      12.72031000       8.70090000     -45.47947836     -50.72512328      52.92986787
O        6.85833500      11.59153000       8.42726000      84.33630928       2.56076254     -26.08187363
C        5.71622500      11.45122000       8.73111000     -37.24471883      22.05242295      21.99459358
N        5.24720500      10.24678700       9.13792000     -16.36097050       6.10712472       3.24351642
H        4.32149500      10.32838100       9.57836700      13.44177254     -20.78906460       0.75445400
C        6.18189500       9.11574900       9.28353800      21.21389714      10.11084845     -55.84776230
H        5.55228500       8.32077000       9.56642900     -14.13655445     -29.81459331      23.38546094
C        6.75515500       8.63924800       7.80281000     -17.09130325      44.54378026      49.50312242
C        7.28302500       9.36577600      10.32125800     -23.53382644       0.55931544      29.58410537
O        6.96759500       9.78647200      11.42619000     -16.11460318      16.30006006      21.75841750
H        7.49096500       9.45869560       7.60662000      -9.55458446     -17.57432066     -13.07346584
H        7.22884500       7.63579000       7.88865000     -13.32658781      10.11541081      -8.74355130
H        5.80918500       8.78450900       7.22227000      24.68200006     -16.03994641      -6.89935148
N        8.54744500       8.99790600      10.11511740      -0.07869119     -21.73483544     -80.93326439
H        8.75339500       8.55649600       9.16299900       2.83694517      17.52774906      38.65419113
C        9.56454800       8.91934300      11.08717900      56.90279272     -57.15555919      -9.05968122
H        9.62086000       9.70843400      11.86111000      -9.30257641       0.30813098     -14.95185371
C        9.52046800       7.46919000      11.80498000      17.41185332      33.45251075     -43.17578394
C       10.94887500       8.84542400      10.17007370      22.04851235       4.28254897      45.71292888
O       11.11292500       8.16768000       9.14872000     -18.48904377      23.19846352      18.52210605
H        8.56264500       7.28813000      12.19658000     -32.19021893      -5.28608992      16.65793851
H        9.79006500       6.71549000      11.07853000      -9.94519339      -7.12970908     -19.87327497
H       10.29675700       7.28904000      12.49646000      21.15132766      10.07714625      35.53650098
N       11.99856500       9.49943040      10.84642500     -11.14956104     -29.47543830     -49.63051293
H       11.74055500       9.94004400      11.70905000       5.39185367      12.92687787       8.69750111
C       13.31606500       9.76683200      10.16348100     -20.76145345      17.60619791      21.15180167
H       13.21212500       9.30256300       9.16040800       7.64980601      -7.07410756      13.57805076
C       13.47713500      11.25459000       9.97233300      25.19179911     -15.24408161     -80.12306075
C       14.45846500       9.34139400      11.07519400      10.31834685      -7.67484565      31.38582193
O       14.96433500      10.10602700      11.91429000     -17.58024580      -7.41357068     -12.05446026
H       14.54517500      11.32320000       9.45032200     -47.53242086      11.92789927      20.41791383
H       12.65445500      11.47950000       9.24542200      16.67903201      15.29610434       9.11038857
H       13.44168500      11.84050000      10.85369400       0.40604155      13.01326641      22.41563403
N       14.73857500       8.00772000      11.05214900      -3.57216024       5.19927477     -40.65736245
H       14.78634500       7.66486000      10.07686680      -7.75208578      -9.40508133      21.78057752
C       15.42112500       7.35319000      12.14006000       9.76965519     -14.50509815     -20.05102917
H       16.12815500       6.59409000      11.69862000      -0.30218925      20.86218083      16.09943482
H       15.82554500       8.16389000      12.77773000       6.22060300     -16.10713750      -1.91406907
H       14.66198500       6.75579000      12.64261000      -1.99097738      -2.32327108      14.83892054
42
Lattice="20.0 0.0 0.0 0.0 20.0 0.0 0.0 0.0 20.0" Properties=species:S:1:pos:R:3:dft_forces:R:3 dft_energy=12.158609575009905 energy=-620660.884043329 pbc="T T T"
H       13.38307000      11.12234400       7.03993500      20.43628177       1.97400778       0.99491751
H       13.79827000      12.29494500       8.47241500      -2.60889838      -6.54571543     -58.48136851
H       14.00091000      12.77046500       6.62972500      11.20926275      11.37793963      -9.96850289
C       13.43599000      12.18489500       7.32375500      10.82495817     -38.71604959      84.68767008
O       11.24543000      11.99337500       6.48360500      12.11821477       0.34548069      29.21473214
C       12.01158000      12.51320500       7.33213500      -0.94101888      -3.19594940     -81.25156291
N       11.63488000      13.57142500       8.04380500     -23.77450563       9.53814812      -0.48381138
H       12.31344000      14.23544500       8.40882500      -1.12052455      -6.29977472       1.81469262
C       10.31758000      14.05640500       7.67774500     -10.39841919      56.82789895      31.36626897
H       10.21631500      14.85175500       8.46413500     -12.52799745      -1.39547712     -11.50656257
C       10.11244100      14.73609500       6.30219500     -19.06638941      32.45495419      55.89978502
C        9.21068310      13.11487500       7.96354500     -47.08199172     -56.28112703      11.33245826
O        8.06536000      13.23914500       7.51304500       4.47339773      18.11895953     -10.03152268
H        9.06876900      15.14516500       6.27247500      12.92794440     -15.24396311       0.09059160
H       10.71865000      15.63762500       6.39476500      13.56548946       0.54777327     -21.36569922
H       10.27156000      14.03811500       5.53690500      12.14025629     -14.92862716     -33.31469200
N        9.46105000      12.03949500       8.76891300      37.94601840      30.86488362      14.25517575
H       10.45225000      12.00030500       9.11280000     -33.35759001     -15.50419526      -0.96643773
C        8.53360100      10.93874900       8.95294600       9.30095292       0.93463039      -4.28036852
H        7.47458000      11.31472900       8.84014600      21.18083486      -2.36333688      15.94052256
C        8.75498800       9.89307900       7.83330500      21.61348858     -31.21292635      -3.67711816
C        8.94331900      10.26730000      10.31114300     -20.02934315       7.94419067      15.76869350
O       10.09869600      10.21183900      10.74124500       3.11569930       3.65051429     -18.80200966
H        8.98105000       8.90814500       8.34130500     -12.29928705      11.28185756     -17.05018278
H        7.96462000       9.78951200       7.05712500       2.63854778       2.29666720      16.28797277
H        9.69209200      10.11994100       7.27701500      -9.40683517       2.44654955       6.27900118
N        7.92558000       9.74002900      11.06075500      47.32278941     -14.12624471       0.86542357
H        7.00620000       9.79600100      10.76926500     -54.39871006       3.93146072     -20.96184168
C        8.21181000       8.85193500      12.19524500     -29.76695519      22.54172100      -0.01905193
H        9.26299610       8.60083500      12.01366500       0.59428324      -7.26244406      11.97636692
C        7.93647000       9.73045300      13.47699500      19.74908403      24.86425737      -0.95387880
C        7.22749000       7.53822500      12.11159500      35.87150840       3.74613420      20.07318919
O        5.99909000       7.49520500      11.98375500      34.94090591       9.47713103      -1.99296823
H        6.84797000       9.88154900      13.46153500       1.16263689       0.94332257      11.20295840
H        8.31549200       9.39820500      14.46309500     -10.23251527     -16.30871076      -8.50777813
H        8.42693800      10.78957000      13.45916500     -15.45916419     -37.16081885     -16.99685652
N        8.04618000       6.43350500      12.31224500     -67.30022834     -30.85303334       3.22471003
H        8.99796900       6.50513500      12.56916500      23.37835077      13.47424230       3.36594166
C        7.46889000       5.05741500      12.51234500      40.48742944     -25.05172880     -27.72230789
H        7.25638000       4.59463500      11.47584500      -7.75636373      16.15240557      33.96266530
H        8.30351400       4.36237500      12.89887500     -19.78368685      26.01586757      -7.60867369
H        6.64619000       4.96148500      13.24445500       0.31221577      10.69874084     -12.66024657
42
Lattice="20.0 0.0 0.0 0.0 20.0 0.0 0.0 0.0 20.0" Properties=species:S:1:pos:R:3:dft_forces:R:3 dft_energy=9.121261694119312 energy=-620663.9213912099 pbc="T T T"
H       13.07163500      11.18162700      10.26449500      -5.85640835     -22.34950946      29.63186200
H       13.65517500      12.53549000       9.53331510       6.53880672      22.52655265     -12.42857360
H       14.12923500      10.89062700       8.86901400     -21.23119855      17.93006606       8.26112640
C       13.30719500      11.54795000       9.30086700      -5.05856455     -24.26273716     -30.56661208
O       11.45180500      10.24605650       8.40818500      11.85928615      49.17783223      -3.35718431
C       11.98531500      11.38870000       8.48891500      14.58034743     -21.85938189      -7.20318081
N       11.57526500      12.54344000       7.84281500      68.16719482      -6.84518385      58.87847139
H       12.15984500      13.38606000       8.04961500     -13.60921699     -27.43813817      -2.61670771
C       10.41538500      12.79604000       7.11623500     -16.93013944      39.83199045     -41.17284963
H       10.42133000      13.88937000       7.02393500     -11.08681380       2.48750411       3.86557317
C       10.60793500      12.29576000       5.65105500     -70.20840554      74.44132553     -13.54404045
C        9.12809400      12.46894000       7.89645500     -33.52953757     -36.82403390     -38.01012842
O        8.41207500      13.33777000       8.39531500      18.44093163     -13.75011682       5.50729910
H       10.64398500      11.28034900       5.74870500      13.71551400     -68.91186641     -15.94538118
H        9.71384000      12.62815000       4.98443500      17.17235916     -20.05055516      27.93537592
H       11.37990500      12.81944000       5.08912500      20.16645089      -7.93775596      12.54079575
N        8.72841700      11.11391800       7.73529500      35.46765085      50.67381157       7.45293731
H        9.30546900      10.50881600       7.18471500      14.39263900      -6.45318844      -1.95082863
C        7.63567500      10.56830400       8.42375500     -11.12379853     -10.40368072     -20.39113220
H        7.09975500      11.43114000       8.72755300     -18.80082463      22.83240837      17.39312988
C        6.65082500       9.82960900       7.45119500      19.41170656      37.19530317       6.40078651
C        7.88746500       9.77722400       9.72073700      12.11454118     -18.41509802      22.53295180
O        6.98459500       9.75763300      10.57383500       7.59011615     -10.16532419     -11.35540040
H        6.25656500      10.51831500       6.64348500      19.81236453     -18.96933561      11.52747831
H        7.01265500       8.85608000       7.17265500       3.67746182     -10.55872978     -14.60037441
H        5.87076500       9.73833400       8.13440500     -48.60060510     -19.97305432      21.59381711
N        9.07369600       9.06582000       9.88993900     -32.69468535       6.48567006       5.50003488
H        9.88455600       9.22918000       9.33275400      11.90834631      16.29875653     -21.93344614
C        9.29493400       7.91016000      10.76881500      13.64547885      17.96407637       5.20969117
H        8.34194500       7.37837000      10.88788500      -0.25834440      -1.30651706      -2.10613840
C       10.37411500       7.06896000      10.09482300      37.65556804       0.75090721      74.32187471
C        9.77727100       8.32118000      12.30842500     -54.55300071      -4.37712605     -34.92170846
O       10.91453500       8.35309000      12.70413500      22.72457082      -0.30757876       7.71792142
H       10.34016500       6.86765000       9.07078900     -17.52040189      -4.16358401     -42.86210703
H       11.39190500       7.55627000      10.27358400     -24.24022163      -9.02153517      -1.21428634
H       10.41480700       6.11063000      10.65629500       3.46338652       4.45223313      -8.07493480
N        8.63883600       8.58808000      13.02851500      42.56952362      -0.73705897       1.34781529
H        7.80270500       8.56601000      12.48539500     -20.63489246       6.13340864      -4.34943195
C        8.62175500       8.82371000      14.45107500     -77.31750698     -66.59881027      25.91620672
H        9.02547900       7.89778000      15.01556500     -10.79097157      24.75452378     -17.13799335
H        9.17135000       9.64265400      14.83556500      10.50763137      30.86772769       1.17346094
H        7.42339500       8.85343000      14.73814500      68.46368882       6.87588793      -8.96618251
42
Lattice="20.0 0.0 0.0 0.0 20.0 0.0 0.0 0.0 20.0" Properties=species:S:1:pos:R:3:dft_forces:R:3 dft_energy=1.8505237848730758 energy=-620671.1921291192 pbc="T T T"
H       12.13344500      13.48557000       8.20552500      13.49995741      34.00662984      25.18160787
H       10.87495900      12.42584000       7.69762500      17.79331383      -0.60367933       2.07565948
H       12.11083500      12.88934000       6.55844500       9.45122632      -9.58628396       9.91585209
C       11.98791500      12.62492000       7.63581500     -45.94626089     -22.80977434     -46.26455941
O       13.24285500      11.62733000       9.33099100      12.19002747     -19.28253851       8.77124540
C       12.71648500      11.45374000       8.23415500     -16.60176818     -12.67150434      -2.75879257
N       12.52978500      10.23696000       7.57172500      -1.77988835      37.81779837       2.34585772
H       12.03236500      10.42167000       6.68725500       7.96214384     -18.87429637      10.69889489
C       13.10763500       8.88394800       7.88586500       6.48499460      42.56750908     -22.75230048
H       12.85663500       8.38484900       6.96323500       1.26668827     -21.70023263      -5.11736564
C       14.61586500       9.07528420       8.03587500      -8.46125393      36.48784145       7.86413017
C       12.29302500       8.25199700       8.99125300     -27.42000724      40.15502909      41.93363760
O       11.54146500       7.29777000       8.77736500      15.10555184     -14.28302391      -6.83630799
H       14.76439500       9.90591700       8.76120600       2.38800916      -9.17403642      -5.74354628
H       15.13357500       8.24001300       8.40786500      13.90535549     -34.69584212      13.13674633
H       15.10679500       9.38387500       7.10189500      -7.56587048      -1.34114358      -1.83159112
N       12.16329500       8.97979300      10.20631000      19.49572505     -50.39852957     -61.54111079
H       12.65322500       9.90498300      10.30756500     -13.14835960     -20.78870909       3.15068133
C       11.19972000       8.38352800      11.14510500     -28.91077246     124.81899861      17.77577542
H       11.14323300       7.31312000      11.11794500      10.63295993     -14.35222954       5.28706165
C       11.58457500       9.21812900      12.44566500      18.26424396      -6.39470731      -9.15921172
C        9.69895300       8.98618100      10.67231500      35.59278981     -28.81644423      49.86716302
O        9.13598500       9.91818200      11.26470500      10.42438316       5.18085944     -13.01421444
H       12.66316500       8.97165100      12.55562500      -3.74100302       9.01184164       1.84544410
H       11.49983500      10.35301000      12.17186500      -3.49644880     -45.68354019      18.31614818
H       11.17655500       8.93139900      13.44155500     -11.29982259       7.77882001     -18.47565295
N        9.13923500       8.17151400       9.79865400     -50.36380825      24.94910537     -11.09572522
H        9.68539800       7.42339000       9.46331400      21.32718581     -25.03205733     -16.60390124
C        7.80832500       8.39352000       9.18869700      21.74478968     -37.76008751     -43.52169362
H        7.64434500       9.45157300       9.06618600       9.07347494      19.96049303     -12.26397321
C        7.75898500       7.59718000       7.78044500     -48.92992438      16.65473894      45.35303588
C        6.63497500       8.05000000      10.05969000     -32.84293235     -14.37877417     -11.71383582
O        5.59149500       7.55374000       9.60502456       7.50208042      -3.20461195       5.81143653
H        6.65130500       7.71222000       7.43686500      43.80965542      -6.56767400       5.75929530
H        8.47815500       8.06259000       7.11513500       3.54381437      -4.11452385      -8.43139123
H        7.94250500       6.51443000       8.00992500       0.57706005      17.46399455     -10.06817559
N        6.78730500       8.48709300      11.30141500      22.43803106      21.44189652      24.09102660
H        7.58761500       9.11329768      11.45286500       1.10523887      -0.45204907       2.94203345
C        5.79210500       8.42228800      12.32214500      -2.04283421     -50.23997282      12.24489426
H        4.86642500       8.80954700      11.96213500     -23.26103300      18.64688950      -3.66723503
H        5.55852500       7.30510000      12.42561500       4.48969186      26.77997363      13.64974495
H        6.12411500       8.90261800      13.27643500      -4.25673906     -10.51597397     -17.15671679
42
Lattice="20.0 0.0 0.0 0.0 20.0 0.0 0.0 0.0 20.0" Properties=species:S:1:pos:R:3:dft_forces:R:3 dft_energy=14.285674896789715 energy=-620658.7569780073 pbc="T T T"
H       14.88092500       7.87284000       7.71042000      10.15617577      -2.97047412     -15.26363457
H       13.91071500       7.13749000       8.93182100       8.22343066      -3.48587835      10.66829747
H       15.31023500       8.37807000       9.41329600     -39.74749796     -19.42047577     -25.11595732
C       14.44780500       8.05683000       8.67840000       3.16766278       7.46899444      24.99745452
O       12.33813500       8.98554900       7.75132000      21.81743189     -10.95480169      32.07811528
C       13.37751500       9.12432400       8.45032000     -18.23343323      18.59569629     -52.10378485
N       13.84687500      10.34005700       8.80563700       3.92523933      -5.65564090      24.30824224
H       14.77903500      10.22083800       9.13266800      17.43981998      14.25150216      15.71643377
C       13.28613500      11.69493000       8.82288200      31.10793286     -18.20700711     -28.63027634
H       13.96429500      12.30010000       9.42866100      -7.35354901      -4.00599898      16.83853678
C       13.39645500      12.27567000       7.44810000     -50.36546729       7.58195131     -30.71118549
C       11.89800500      11.70639000       9.38069600     -47.43086396       3.49815524      34.33085350
O       11.68068500      12.06635000      10.54214700      20.27476245      11.56944016      12.06844359
H       12.58538500      11.84828000       6.80226000      16.93606458       4.95957916       3.42807268
H       13.19505500      13.33220000       7.49086000      -9.50510954      19.55936105       3.06864184
H       14.32763500      12.23950000       6.92768000      24.78426798     -15.33106267      -2.03072322
N       10.82967900      11.31024000       8.63059000       7.43375171     -14.47559096     -52.44163633
H       11.08239800      10.60456800       7.85527000     -16.71588638      25.60584789      27.10111621
C        9.42973500      11.45503000       9.14346900      30.51565587       4.44127162      25.07080775
H        9.53542300      12.05470000      10.05523400       7.73045902      -7.37346933       7.71390418
C        8.43870500      12.21484000       8.32207000       5.99022171      63.29258217     -98.79827242
C        8.97599500      10.04930400       9.52388000      -0.08717860      -6.76929466      25.39313536
O        8.01019500       9.54089000       8.98524700     -12.28127462     -13.79443687      -8.98351947
H        7.47662500      12.58511000       8.74144000      10.72619794     -24.88700991       8.42893822
H        8.82072500      13.33801000       7.89230000      -3.83580526     -64.75858030      30.17116824
H        8.26272500      11.67997000       7.32059000      -5.57549746      11.97861847      29.87739980
N        9.66299200       9.43273100      10.57202800     -27.01650521      26.39744659     -33.76737269
H       10.51792600       9.85910100      10.84028000      18.42848884      10.83272010      15.07059351
C        9.24203500       8.18689000      11.15536000      -0.77057986      12.92747039      18.65885828
H        9.14368500       7.49884000      10.32957500       4.86401850     -21.34638327      -6.58194174
C       10.27954760       7.78354000      12.27890000     -61.17493714     -48.94224867     -36.07011909
C        7.77866500       8.34885000      11.75475000     -65.24716734       5.92079092      19.03143108
O        7.49739500       8.87646000      12.84090000      30.43519247      -3.46515221      -9.00341609
H       10.25539820       6.66199000      12.27754000       1.34532673      15.61215131      11.22853130
H       11.27673900       8.05822000      12.13055000      37.97457758      17.53912533     -17.30069770
H        9.93368500       8.18518000      13.19774000      -9.68697579       7.17470459      26.17880892
N        6.66591500       7.91002000      10.99076000      78.02852377      -4.18570848       5.74940032
H        6.94408500       7.44357000      10.16869600       0.96509391     -10.10839544     -33.02281960
C        5.31759500       7.91072000      11.36763000     -43.60547510      48.29723793      11.54441236
H        4.68976500       7.14928000      10.90509000       8.22663024      -8.34144760      -8.63292894
H        5.25075500       7.76355000      12.44427000      -3.16012600       3.73485273       8.66612157
H        4.77139500       8.92607700      11.11576000      21.29649359     -32.76021740      11.07106478
42
Lattice="20.0 0.0 0.0 0.0 20.0 0.0 0.0 0.0 20.0" Properties=species:S:1:pos:R:3:dft_forces:R:3 dft_energy=15.95644668256864 energy=-620657.0862062215 pbc="T T T"
H        6.95550500      13.55363000      11.20583300      -4.51014544      19.89519799      11.39584540
H        6.29014500      12.57004000      10.06873400      -9.97204612     -57.85425170     -14.09413045
H        6.13219500      14.12782000       9.63851900      18.48501467      13.02049508       9.54609966
C        6.85010500      13.44287000      10.13624700      31.04879997      36.88411482      -6.82649596
O        9.26438400      14.01412000      10.16995000     -22.08121913      -3.53105161     -22.60879359
C        8.33399500      13.42819000       9.60273500     -18.83625697     -59.76771640     -22.00881392
N        8.47986500      12.41081000       8.56337000      17.29572058      40.54407378      16.38514507
H        7.57516500      11.99528000       8.22507000      32.52155276      11.16247784       7.46122066
C        9.77607600      12.23007000       7.72055000     -26.35525959     -12.11596322      -4.35650656
H        9.54349800      11.38014300       7.00471000       0.79447595      19.29889190      15.08516936
C       10.03692200      13.50130000       6.83630000      43.14793579      -9.97257938      -9.91464336
C       10.97464500      11.61605700       8.51288000       8.65709166      30.82482968      23.46284326
O       11.79637500      10.88810170       7.98796000      -5.08766884     -16.91722264     -19.38812451
H       10.83056500      13.35915000       6.01069000     -17.73702500      -9.63138612      28.48108131
H        9.12599800      13.59316000       6.25626000     -10.16780089      18.45870705       1.57444004
H       10.42565600      14.41868000       7.37008000     -23.04393587     -18.16422759      -4.24882307
N       11.10060500      11.98754000       9.84568100      -2.15940541       3.38974888     -25.00574971
H       10.78010500      12.94284000      10.06674500      -8.54913561      -9.94967279       5.58988370
C       12.06164500      11.33917500      10.70730400     -13.29814714     -33.15518723      -1.53365138
H       12.69605500      10.62797500      10.15125000     -12.88966799      -1.04355343      -8.36969867
C       12.95074500      12.23769000      11.39351000      72.62906222      77.93289201      44.93720955
C       11.37270500      10.52798500      11.79135000       2.09431182     -66.98892148      11.85703460
O       12.00780500      10.03125300      12.76250000     -31.09774162      28.07200965     -29.44770865
H       12.89020500      13.21822000      10.90907500       7.12477936       5.39501770      -3.28189948
H       12.73261500      12.46447000      12.45584000     -11.43505798      -6.96878227      -6.08994181
H       14.06140500      12.01989000      11.49440000     -25.40865923      -7.07110944     -15.47326603
N       10.10681200      10.13868900      11.42436000      25.49101868      14.51647442      30.67362011
H        9.68638180      10.49074100      10.60747900      -8.00947386      22.00478482     -34.02156119
C        9.21412100       9.33818000      12.15639000      24.66493566     -79.03484955     -26.55884740
H        9.78111000       8.42929000      12.51467000      -0.83171545      21.01054633      10.73323700
C        8.40368500       9.98001700      13.19372000      39.67698879      16.59501353      68.24398463
C        8.29242500       8.63560000      11.11952800     -27.69611877      22.60429048     -26.07594849
O        7.93525500       9.21627000      10.02988200      18.37776964     -46.51021571      60.84680289
H        9.16470400      10.50317200      13.98931000     -42.03163942     -33.45274776     -31.63846990
H        7.91586500      10.80932400      12.73228000     -26.06018762      14.82967732      -4.33617148
H        7.75662500       9.16764000      13.62087000       3.81274462      27.51777205       3.86033534
N        7.83495500       7.41963000      11.59514000       3.14923559     -16.15785670      -4.11301886
H        8.16117500       6.99921000      12.50193000      -2.86050352      22.85788647     -29.43562136
C        6.92420500       6.55810000      10.78366200      -2.27601217      80.96632667      11.45469390
H        7.28463500       6.64556000       9.78104800       0.96398946      -6.29860154     -22.58924063
H        6.86694500       5.58132000      11.13275900       3.52616930     -42.90026494      17.31610306
H        5.93859500       7.05422000      10.85946200      -1.06697432     -10.29502550      -7.48744533
42
Lattice="20.0 0.0 0.0 0.0 20.0 0.0 0.0 0.0 20.0" Properties=species:S:1:pos:R:3:dft_forces:R:3 dft_energy=18.35544451570604 energy=-620654.6872083883 pbc="T T T"
H       13.28226500       6.49920500      10.07198900      90.04589266      18.81066037      -7.57921389
H       11.89657500       6.39716500       9.02904500       4.86155364      11.04031331       7.69742044
H       12.19701500       5.22265500      10.22831860      -8.02598130      -7.82870969      18.73730713
C       12.30310500       6.28590500      10.05737300     -81.60185719      14.91298479     -10.57616154
O       12.05734500       8.40154500      11.36546500      48.69173375      63.77488856      -6.64878916
C       11.68084500       7.31554500      11.06947600     -64.16938438     -98.44394905      30.25127613
N       10.60963500       6.70691500      11.80489500      13.45931095     -37.56467639     -68.92525723
H       10.35686800       5.88730500      11.18430600     -12.64922581      20.92972742      37.41559987
C        9.76772300       7.22073500      12.91303500      88.46245825      43.40603488     -23.07664264
H        9.14290400       6.44766500      13.25991500     -21.78804320     -21.18640449       7.62860586
C       10.85824500       7.62532500      14.01535500     -34.86127203     -25.66047768     -17.09272528
C        8.93983300       8.45590500      12.55284500      37.73058031     -33.20685445     -37.16982507
O        7.78547500       8.38934500      12.86149500     -49.89714422      29.72227963      11.86272273
H       11.85034500       7.67356500      13.56433500      -2.12176892       8.99007267       5.80239477
H       10.49588700       8.50814500      14.50863500       6.67060553      16.71612339      10.38591715
H       10.78884500       6.79589500      14.69640500      10.24492252      -8.44612112      17.90518048
N        9.62007460       9.39763000      11.75781500    -112.47313996       6.52343690      18.74773538
H       10.56352500       9.27794900      11.82691500      82.97826720      -1.82270341      -3.70679127
C        9.07042400      10.73618200      11.74643500      -8.49731433      37.15441970      23.54745426
H        8.06715500      10.70208900      12.22242500       8.33903014      -7.33955383      -2.06638071
C        9.95475100      11.75149500      12.54711500      18.82594723     -42.61336966     -52.30251405
C        8.66199400      11.45523500      10.41589400     -22.53235928     -25.08514659     -41.06856717
O        7.45606500      11.44231500      10.07670700      27.68865309       1.51493979      14.35708816
H       10.96467500      11.61161500      12.12929500       4.84671709       7.50838477      -3.19976519
H        9.60537380      12.69452500      12.22617500      -6.36752277      37.14304343       9.47659777
H       10.11816000      11.58245500      13.57849500     -13.11458631      -2.32676692      32.23916059
N        9.59515200      11.98661500       9.52680900      -9.71291605       0.07852766      18.12346263
H       10.52357900      12.21952500       9.90570700      -9.16135662      -4.95718540      -7.44156104
C        9.14428100      12.82022500       8.38941500     -16.28560272      23.35465021       5.33086028
H        8.09985500      13.21607500       8.55933500      17.80006849      -2.06327594      19.17031636
C       10.14112000      13.99293500       8.19329500     -15.77983277      12.51508064     -23.88459473
C        8.78105800      12.13597500       7.05048500     -11.28890848     -45.51585872      18.14965175
O        9.07476300      12.61924500       5.98017500       8.67793630      13.65282602     -24.81744876
H        9.67513200      14.77734500       7.42795500      27.74837850     -37.82372351      32.78948759
H       10.36747500      14.51998500       9.16183500      -6.52616247     -10.26435698     -16.31013280
H       11.07116500      13.51259500       7.79282500      -8.78519318      18.60778357       0.73528617
N        7.98507500      11.00045500       7.14964500       0.73758512      -5.70201105     -21.77263784
H        7.74898500      10.58237700       8.03347500      -0.55258803       7.31686055      13.90345944
C        7.51867500      10.23264200       5.94458500      -5.09028775      22.44561523      17.91608273
H        6.71773500      10.80007200       5.40995500      12.43959436      -3.82131237       3.34807144
H        8.39838500      10.12986100       5.30359500      -4.50758578      -7.62943538      -7.55134204
H        7.04947500       9.26250200       6.24593500      15.54069412      13.18319943      -0.33099728
42
Lattice="20.0 0.0 0.0 0.0 20.0 0.0 0.0 0.0 20.0" Properties=species:S:1:pos:R:3:dft_forces:R:3 dft_energy=15.486326069803908 energy=-620657.5563268343 pbc="T T T"
H        9.19229700      11.90413000      13.04918000      18.95381175       2.99579817       2.49255233
H        7.72478500      11.08959600      13.55431000      -6.05386956      -5.78748712      11.59224009
H        7.69776500      12.97098000      13.32559000      20.18019722     -50.12289206     -10.39523147
C        8.12178500      11.91644000      12.98391000     -47.12797081      43.74708594     -23.43072901
O        7.72221500      12.84626000      10.76293000      -1.65633733     -42.47981700      27.22281859
C        7.75439500      11.79629000      11.47489000      33.13006463      26.28273588     -22.22045992
N        7.78291500      10.51306400      10.90039000       4.49820036     125.51223998     -63.36759444
H        7.58594500       9.86557300      11.52750000     -20.50797596     -96.58025552      79.39900865
C        7.24484500      10.29780900       9.54183300       1.13899084      -5.05939407      -3.16722432
H        6.92323500       9.26348000       9.45620100       4.05859053      -9.48955012       7.73896752
C        6.01364500      11.12971000       9.17399320      -9.54817346     -63.49616997     -25.04153756
C        8.25913500      10.45640300       8.38326400     -34.25287866     -38.75041540      22.59350673
O        8.29628500       9.56841000       7.54160000      14.70074628       4.64807085     -16.53505111
H        5.27743500      10.94450600      10.01236600      -0.05391297       6.62209048     -31.24658114
H        6.26131500      12.13504000       9.05869200       3.87507709      44.35559782       2.02646897
H        5.82327500      10.72245461       8.06939000     -14.53164278      15.62056501      52.84217579
N        8.85612500      11.62953900       8.45304700      27.41514863       9.20387542     -15.17973459
H        8.54602500      12.14585000       9.26362630       2.98363978      28.11431515       8.31275807
C        9.78058900      12.11223000       7.44759000      -7.03325965     -56.09922524     -28.77425724
H        9.36557400      11.70814700       6.44569000      15.62897870      15.66642559      26.44662525
C        9.91431000      13.55344000       7.46938000     -80.11654310      59.03821316      -9.76772359
C       11.19017500      11.59471600       7.57768000      17.46743113      -5.86511830     -33.70361818
O       12.01946500      11.79441000       6.63401000     -30.32794744     -16.21414553      52.37314171
H        8.76003500      13.84439000       7.52364000      50.16922665      11.00817535      -4.70114826
H       10.42540900      13.98729000       8.33054800       2.33791803      -2.57448517       3.93878420
H       10.35065400      13.90187000       6.53188000       0.92457780       5.23787113       1.48601325
N       11.40754500      10.98033000       8.76414200      39.78956645     -12.36707065      29.83746435
H       10.72413500      10.89550800       9.56894500      16.42733206       2.67006953     -37.29188295
C       12.74634500      10.39408500       9.01793200     -12.84321490      -2.05668719       6.19324070
H       13.30396500      10.41382200       8.06516000     -13.95891875      -3.64374778      -1.99754244
C       13.69384500      11.13754400       9.99215700      29.70616325     -33.57006553     -39.77937521
C       12.56248500       8.99263000       9.57062100       1.38417195     -46.64625693      17.97308258
O       11.71498500       8.66897000      10.43663000      14.31928577      23.81254503     -25.27676561
H       13.48473500      12.18469000       9.88181900      16.05535178      19.35553624      -3.24604053
H       13.67082500      10.84634700      11.00652000     -18.31081556      -7.93837218      33.92427040
H       14.72256500      10.69507660       9.67721500     -24.86378336      36.68846669       7.22954768
N       13.50941500       8.06160000       9.14835050     -76.21495693     -12.96539128      73.66845028
H       14.12048500       8.39570000       8.49696300      53.44488103       8.68727432     -51.10859834
C       13.47765500       6.69969000       9.80204200     -20.68004203      17.30057919     -58.97682871
H       12.95224500       6.87585000      10.75025000       9.92255935      -9.61193981       0.69179683
H       12.85770500       6.01271000       9.12313400      10.76609783      16.19269652      22.56708060
H       14.47953500       6.28980000       9.77207900       8.80402328      -1.44155100      14.65784826
42
Lattice="20.0 0.0 0.0 0.0 20.0 0.0 0.0 0.0 20.0" Properties=species:S:1:pos:R:3:dft_forces:R:3 dft_energy=-46.995929693453945 energy=-620720.0385825975 pbc="T T T"
H       12.33548000      12.89650500       7.98186500       4.41708520       3.13529967      -4.77802102
H       12.85516000      11.60138500       9.03519200      19.85455153     -24.63542846       1.09009540
H       12.46967000      13.16574500       9.73658800       3.14587012       5.63813804       4.22553727
C       12.21696000      12.44294500       8.96554800     -27.04696043      19.61588689      -2.43058722
O       10.34064030      11.12483500       8.28446500     -10.67936563     -19.76413389     -20.55881366
C       10.78030700      11.97154500       9.04761100      17.73927656       6.44706185       9.21792986
N       10.01448400      12.51752500      10.01423100       1.46723056      16.00842467      11.17936449
H       10.47551100      13.10599500      10.69946300      -2.46387465      -0.45698353      -0.55325520
C        8.63784000      12.12170500      10.26344700      -2.27675873     -11.90467272       0.91914208
H        8.31079000      12.65945500      11.15066500       0.37349594       3.73608516       7.73391930
C        7.70913000      12.47400500       9.13023000     -31.85058991     -18.11528594       1.69045428
C        8.63710000      10.64326500      10.70343600       8.98404088       0.38402373      18.25215667
O        9.22037000      10.33204300      11.75401500      -2.43011321       2.12832213      -5.96538352
H        6.64527000      12.14710500       9.34549400      21.96982649       5.41542388      -1.69360646
H        7.67765000      13.53290500       8.98728900       0.51730738      22.37771313      -3.33376815
H        8.02065000      12.01937500       8.19740500       3.40350705      -3.96047021      -8.84724125
N        8.00943000       9.73464600       9.93747340     -10.88620042      -1.11753235     -16.83047859
H        7.67110000      10.02140100       9.00742000       4.03560098      -3.71064261      13.38133611
C        8.08363000       8.31025500      10.22393600       2.58030365      -9.07932898       4.88095255
H        7.82579000       8.09580500      11.27420500      -0.54376669       9.48554473      -0.85861203
C        7.11757000       7.54274500       9.33929600      42.29507114     -17.87567328     -18.09620699
C        9.51276700       7.71372500      10.11564500     -20.52409234       1.00515615       4.62098111
O        9.75209000       6.65832500      10.67913900       4.37331026     -15.96173457       8.56100959
H        7.17755000       6.46709500       9.55426200       3.95302823       1.94150246      -0.02745461
H        6.13258000       7.83163500       9.50870500     -46.19274671      16.72501110       6.77372667
H        7.37251000       7.68729500       8.27035500      -2.96112425      -1.16135824       4.55228504
N       10.38132170       8.41493500       9.39024600      11.82578541      17.08194153     -14.92767914
H       10.09150600       9.28291200       8.92928800       0.49024608      -0.89228460       2.70637878
C       11.78696000       8.10135500       9.28349000       7.83858097       8.79569253      -3.27747932
H       11.94486000       7.14379500       9.76947300      -1.86133532     -12.93066996       2.05846473
C       12.23400000       8.05629500       7.82231500       0.67180659     -19.57998054       8.33091270
C       12.67380000       9.07286600      10.09777000      11.09344996       0.92264384     -13.11565283
O       13.86742000       9.23589900       9.82060690      -0.83434740      -2.81540136      -0.09584625
H       13.30770000       7.83885500       7.77589500      -0.76779149       4.17551724      -1.18302411
H       11.69642000       7.24619500       7.30541500       0.26535384       2.72351429       0.37841499
H       12.00952000       8.99717300       7.34219500       0.06330396      11.42370541      -7.61163626
N       12.08040000       9.72101200      11.10899500      17.37796152       5.69478238       8.62487075
H       11.11615600       9.59069600      11.30280500     -27.23372084      -4.51941236       5.02244490
C       12.81770000      10.57622500      12.01036500       5.11591990     -23.75163459       2.97059262
H       13.48953000      10.03820900      12.69458500      -0.71585408      -6.70747175      -1.78878791
H       13.43461000      11.25576500      11.47482500      15.16634378      18.48300013     -16.21521205
H       12.12051000      11.10707500      12.60783500     -19.74967655      15.59567942      15.01774127
42
Lattice="20.0 0.0 0.0 0.0 20.0 0.0 0.0 0.0 20.0" Properties=species:S:1:pos:R:3:dft_forces:R:3 dft_energy=8.307768672937527 energy=-620664.7348842311 pbc="T T T"
H        9.12006500      14.64003500       5.72175000       3.56490786      13.76410015      -3.59328928
H        8.83928500      15.02095500       7.51865000       0.11740606     -11.37154048     -17.63238703
H        8.06907500      13.58046500       6.61400000      14.97116966       8.13940033      11.13503259
C        8.96861500      14.24525500       6.72339000      23.42267082     -32.82871201      22.81285541
O       11.17764500      13.71463500       7.94398000     -52.29208580      -4.16485199     -31.56262811
C       10.30849800      13.40392500       7.08275000      36.43617423       5.88552448      21.53740978
N       10.51666100      12.25197500       6.30587000     -20.74083396      44.42741051     -17.45949145
H        9.94855700      12.39388500       5.44202000      14.97045865     -20.44220691      12.97984862
C       11.83103500      11.56425500       6.15359000     -17.51672830     -11.72567425     -15.34919360
H       11.56798500      10.85404300       5.32055000      10.18165387       5.51740739      12.88789045
C       13.05831500      12.38024500       5.70849000     -45.84103041      14.82138213     -52.36247646
C       12.14909500      10.58155900       7.31308000      11.24214727     -11.78472419       6.54972082
O       13.18359500       9.91170011       7.25965000      -7.28959305      -1.53500231      -1.22091064
H       13.09640500      13.35420500       6.15110000      -2.46033142      17.61650766       8.24484412
H       13.93142500      11.88284500       5.92429000      48.29083878     -34.20014491      23.22382312
H       13.13553500      12.46825500       4.56829000     -12.81951434       3.61841188      27.87802056
N       11.18833500      10.46176400       8.26784000       7.52880280     -12.49943828     -17.64921443
H       10.64282300      11.27166500       8.31697000     -37.84576503      27.08618486      10.59647292
C       11.02595000       9.42579400       9.25779100      40.50058325      58.28903847      35.44857190
H       11.42260500       8.55723500       8.80586000       1.14621477     -36.25427244      -8.63832081
C       11.95457500       9.73840500      10.53685000     -12.98589227     -74.01104187     -18.12204060
C        9.66532700       9.42845400       9.93208000     -27.04885648     -10.86148073     -40.75749732
O        8.96025500      10.46084700       9.88879600      14.77125544     -33.81844740      19.39641970
H       12.94342500      10.07952900      10.26075800      13.94244686     -13.65330003      -6.84869154
H       11.54996500      10.54748500      11.07305000     -22.34322882      21.52650752      25.72755026
H       11.86383500       8.69567500      11.07834000      19.57358139      49.92179281      -6.02557109
N        9.32432500       8.17818500      10.45564000       9.11758169      48.69197075     -11.11390354
H       10.00725300       7.41952500      10.32275200     -14.74091873       4.28239491       9.59963922
C        8.24002500       8.07884500      11.43547000      18.20712561       3.15813515       2.72901282
H        8.23196500       9.01839300      12.02578000      -3.53989192       0.12468509      -9.20721720
C        6.86414500       7.94262500      10.71339000     -13.58172434      20.87438662      44.36010092
C        8.72261500       6.96708500      12.40719000     -53.69717349      16.15690868      -7.44122923
O        9.27878000       6.00853500      11.92287000      20.13220358     -27.86984387       5.48170249
H        6.06857500       8.04495500      11.49957000       9.39606326       0.09872172      -6.98193608
H        6.75143500       8.86706500      10.09764800       3.03787851     -20.13125556      -2.36451006
H        6.62461500       6.98654500      10.25075800      12.13907126      -1.05128336     -12.36967771
N        8.20867500       7.01436500      13.69738000      14.07908059     -26.18283802     -10.75416460
H        8.19035500       7.83404500      14.25257000      -5.08842725      35.36633096      -4.19349411
C        8.40647500       5.88268500      14.56866000     -25.58179182     -36.30676918     -11.91593049
H        7.75936500       5.94744500      15.43171000       6.99034978      18.68089980      21.48716459
H        7.90848500       4.97904500      14.17196000      11.08846099       0.96550156     -16.93345752
H        9.43622000       5.61437500      14.76156000      10.56572144       1.67922022       8.42129479
42
Lattice="20.0 0.0 0.0 0.0 20.0 0.0 0.0 0.0 20.0" Properties=species:S:1:pos:R:3:dft_forces:R:3 dft_energy=27.912259130505845 energy=-620645.1303937736 pbc="T T T"
H       12.89183500      12.87105000       6.58382500     -49.61629259     -15.83600310      13.57200711
H       10.98339500      12.78813000       6.95492500       0.01057998      14.24368098      -1.83157927
H       11.85028500      11.41658000       6.25761500      -4.78587776       1.93945237     -17.92271889
C       11.93065500      12.26640000       6.93722500      44.75329321      -1.14927333     -57.57802167
O       12.10547500      12.50968000       9.17458600       0.13190191     -20.62896732      43.26477955
C       12.24090500      11.70804000       8.24717500     -11.53580906      69.04150847      -3.52193875
N       12.71852500      10.48653000       8.24179500      27.17932806     -38.32416083      24.68425162
H       12.89292500       9.99395300       7.35808500      -8.94478090       9.99631549      11.66946837
C       13.07144500       9.71495000       9.46160400      39.67651478     -21.19268514     -17.38056858
H       13.63674500       8.91210000       8.89268500      -7.96805713       3.69739399      31.01668571
C       14.10804500      10.41401800      10.52057500     -49.92238532      28.83030906     -47.60980319
C       11.75470500       9.02756000       9.88786800      -2.29140568       4.50531053      12.85388015
O       11.25210500       8.18068000       9.14922200       1.43498595       1.00576051      11.35177421
H       14.40666500      11.35326000       9.96593100      -9.57272724     -10.32253000      25.88101139
H       13.69238500      10.56946600      11.53112500      -3.41797624       9.66456691     -10.72289171
H       15.01036500       9.89768900      10.67988500      26.15356783     -32.31452837      -2.78337005
N       11.20641500       9.47131000      11.07830500      46.11643091      33.61225252     -32.43670475
H       11.65503500      10.37565000      11.39934500     -21.71314943     -30.88905819      -0.45087827
C       10.02811400       8.87467000      11.65855500      27.47001543      33.31137392     -14.47511695
H       10.07576500       7.93561000      11.19339500      -7.44691737     -50.22990008      -1.95939639
C       10.13700100       9.05211000      13.14511500     -14.85551093      -5.00125660      48.48802744
C        8.69979500       9.42994400      11.20695500      32.13701117      64.07221208     -10.94216929
O        7.78629500       8.96735000      11.80055500     -94.57317361     -42.45611644      21.25786168
H        9.04190000       9.10659400      13.61867500      58.38040412      -0.55217327     -16.43432373
H       10.83110500       8.36309000      13.74238500     -25.11169122       6.51499950     -23.05815620
H       10.71790400       9.99355600      13.16428500     -16.95466952       6.27523279      21.02192260
N        8.64093500      10.58389800      10.44498600      -6.88455048     -28.57410601     -11.44975233
H        9.56178700      10.80543800      10.10586900       7.34731577      11.61450677     -16.83924779
C        7.45650500      11.07839300       9.66419880      20.73076122     -26.50563964      -2.40796503
H        6.68805500      11.32432000      10.34588300     -27.94568566     -12.01488033      31.07202652
C        7.76460500      12.43797000       9.12166300       8.43412864     -33.83089019     -45.76127802
C        6.87424500      10.10191557       8.55111500       9.62629050     -51.09994764      44.43084709
O        6.86997500      10.39770800       7.38740500      -2.54472911      18.37966568     -35.44928292
H        7.98353500      13.02392000       9.96198900      30.88965071      29.45339678      21.58161132
H        8.41199500      12.36325000       8.21029500       2.87804194      12.45547374      22.43708303
H        6.84401500      12.82068000       8.77664200     -30.94487301      13.99091451     -17.93136959
N        6.46627500       8.79827000       8.97145400      20.57741860      64.36254394      38.53225175
H        6.30345500       8.68536000       9.98306800       9.88915341       2.60780815     -10.45854751
C        5.78770500       7.90732000       8.11704500     -10.78452501     -63.20773416      18.79288495
H        6.41989500       6.97608000       7.85409500     -12.14736646      35.37308562     -12.31030781
H        4.98963500       7.39174000       8.71435800       3.71721951      11.60427998      -5.66271552
H        5.28303500       8.46211000       7.34743500       2.42847787      -2.42218537     -24.53031648
42
Lattice="20.0 0.0 0.0 0.0 20.0 0.0 0.0 0.0 20.0" Properties=species:S:1:pos:R:3:dft_forces:R:3 dft_energy=22.646447364240885 energy=-620650.3962055398 pbc="T T T"
H        6.21848000      14.00596500       8.48129000     -41.64840136     -13.88840959     -33.95899172
H        4.63496000      12.94029500       8.07084000     -14.06355672       9.01561003      13.04715821
H        5.57519000      13.51745500       6.66056000       6.00640919       4.99931315      37.21663367
C        5.61845000      13.27032500       7.78490000      60.32100597       0.79706168      -5.62699878
O        7.75701000      12.13839500       7.74590000      84.16981285       9.96641724      -5.00698028
C        6.59218000      12.06015500       7.88214000    -105.49202155      -2.14184330     -21.37458693
N        5.91891000      10.81628400       7.94940000      18.64357142      21.26473484      -8.28640305
H        5.14553000      10.88748800       8.58873000     -13.50742309      -2.59766431       3.21677034
C        6.80640000       9.74875900       8.32481000      28.57695008     -27.10478980     -28.29977203
H        6.15362000       8.91940500       8.52714000      -9.94694723     -13.83140974      20.92877940
C        7.67814000       9.14955900       7.20089000     -16.53706566     -70.23151358     -21.03649845
C        7.57869000      10.18485600       9.57113500      53.22091074     -75.57527882     -81.44531499
O        6.99557000      10.81041300      10.36462900     -45.93689917      69.42759059     101.77826232
H        8.23483000       9.72202600       6.54714000      18.42540776      58.01434898     -28.46555744
H        8.52554000       8.42941500       7.42964000     -25.58665044       6.48748315      19.47285401
H        7.07757000       8.49891500       6.46652000       5.41531723      18.42422274      23.88222467
N        8.86805000       9.74021100       9.63386400      -0.01895666       8.08972395      13.05888999
H        9.29410600       9.24481400       8.84003000      -0.42946837      11.05439144      10.72267840
C        9.73985300      10.04268850      10.75652800      13.02879028      12.19121249     -24.65059682
H        9.68833500      11.08207500      11.14556000     -16.87799821      -3.30808860     -10.76064670
C        9.52877800       9.10520100      11.90730000     -11.73611434       8.07655829      43.91441189
C       11.17556000       9.92742140      10.23901200      -2.00990228     -34.84491864     -46.79308190
O       11.43928000       9.38233900       9.11868000      -9.50371121      26.33961722      49.14121487
H        8.40618000       8.96923500      12.04114000      28.47480066       7.77853560       8.17882621
H        9.93462600       8.11274500      11.70370000       3.93189918      -5.30610505       0.21777378
H       10.06504320       9.57925800      12.83300000     -27.04293134     -25.54090835     -25.76819672
N       12.11643000      10.35139900      11.09698000      56.17862211      -0.97705321      22.14497363
H       11.96312000      10.59737100      12.08908000     -14.67029106      -0.71314155     -19.84827088
C       13.57189000      10.05150780      10.86891300     -70.19335568     -55.46215419     -24.40624405
H       13.66394000       9.73886900       9.83712450     -21.87146917     -24.17492659     -16.19945118
C       14.44652000      11.14857500      10.75045200      24.66114357      57.09310821      44.93969811
C       14.10399000       8.78140500      11.57392000     -36.80649548       4.34068644     -12.42335948
O       15.26184000       8.46953500      11.53339000      53.20645340       0.89350163       6.89068893
H       15.36504000      10.66535400      10.62851100      51.13656500      -6.01917194       0.07230887
H       14.30093000      11.79660500       9.93912490     -13.59286361      16.98216217     -36.49732168
H       14.43112000      11.79160500      11.61097000      10.72149337      11.42849293      21.39959102
N       13.15019000       7.93796500      12.02922000      22.34595438     -32.31393585      29.22835996
H       12.25330000       7.99164500      11.66916000     -48.22400320      20.03716434     -17.70052614
C       13.40750000       6.54271500      12.45051000      29.34283367      20.30024055      -0.73088972
H       14.35794000       6.14708500      11.99447000     -21.57450116       4.30665244       3.85476571
H       13.50069000       6.48737500      13.53348000       7.20953256       2.17238147       8.99621112
H       12.50916000       5.99403500      12.23868000      -7.74662280     -15.45003948     -13.02333915
42
Lattice="20.0 0.0 0.0 0.0 20.0 0.0 0.0 0.0 20.0" Properties=species:S:1:pos:R:3:dft_forces:R:3 dft_energy=11.529477578471415 energy=-620661.5131753256 pbc="T T T"
H       12.84510500      13.98940500       7.10374500      -5.78324472      -8.42676962     -11.06365836
H       11.68990500      12.70518500       6.33084500      -5.95641286      17.70775481      -4.47463015
H       13.42419500      12.61061500       5.93764500     -12.51223658      23.89502297       8.65602513
C       12.67970500      12.97120500       6.71018500      30.95838233     -36.36187298      10.20586399
O       12.86661500      12.24734500       9.05474700      14.11415742     -23.64438955     -21.50837659
C       12.85743500      11.92689500       7.85344500     -32.81105510      19.17529348      -2.64815836
N       12.70227500      10.65845500       7.31466500       3.85602184      -1.80400367     -21.96638991
H       12.65478500      10.59224500       6.27526500       1.20962918       9.23805163      26.06848282
C       13.02884500       9.39159600       7.91315500      45.53150109      -0.50850855      38.75088941
H       12.99639500       8.56823400       7.22301500      -8.49737358      -2.67181152     -20.56426479
C       14.60889500       9.43769900       8.40042500     -85.25517999     -26.39235097      37.92160682
C       12.13688500       8.88429400       9.05079100      -3.19924378      -0.60889701      19.84838938
O       11.75753500       7.72953500       9.07445900      -5.16016885     -50.59951032     -27.90894980
H       14.57481500      10.17654800       9.15768300       6.77686699      29.79812142      20.33531738
H       14.83870500       8.52677200       8.99043200       9.79909128       0.28609301     -24.50175731
H       15.15186500       9.80333000       7.59100500      34.19279774      -0.84565494     -33.10944515
N       11.82565500       9.63095100      10.13151300      64.73476123      59.91928148       9.05821178
H       12.44645500      10.52500500      10.16291600     -36.07497770     -28.40227695       6.67015522
C       11.47511500       8.98581500      11.40031500     -62.85400330      21.67949464      12.85364314
H       11.65553500       7.91631500      11.50269500      14.96488902      -4.21457576     -15.52019313
C       11.98142500       9.76318200      12.60985500       0.19388836      53.18488589     -12.45310368
C        9.78146300       9.03894400      11.37671500      42.51797491     -37.61646212     -20.72590261
O        9.09873500       9.73463000      12.08023500     -13.66621684      36.49921772      28.32003601
H       11.42716500      10.76331500      12.68666500      17.20956904     -21.57639720      -8.37259014
H       11.77224500       9.34736900      13.56070500     -14.01212651     -27.16048611      21.61633264
H       13.08037500       9.97311300      12.68768500     -13.26022625      -4.32484262     -16.46916355
N        9.21197500       8.23214600      10.42775800      39.26329552     -12.92000471      -8.88964155
H        9.75883100       7.50174500       9.95902940       4.28195645      11.86663333       2.94919102
C        7.86489500       8.40673300      10.01253880     -50.86744515     -11.00783169      67.89286084
H        7.62632500       9.44127400      10.44678400      -2.12839323     -15.59745696     -36.11811272
C        7.57564500       7.99137500       8.59970500     -29.59275607      19.82611085     -39.93413987
C        6.97616500       7.44291500      10.98620500      51.08631982      12.08930009     -45.73034879
O        6.91607500       6.25767500      10.68134700     -14.96797009     -11.11173494       0.15555033
H        6.55366500       8.40027100       8.25992500      28.28744774     -12.16052027      12.05611930
H        8.30628500       8.46335200       7.96456500      10.67680597      15.22997978     -13.57473268
H        7.61622500       6.93055500       8.22585500      -2.01729685      10.78401545      31.92631320
N        6.57959500       7.94142500      12.15074500     -38.33245603     -53.91332260      10.41673973
H        6.72652500       8.85508600      12.46890500      10.63621876      36.63004481       4.46578985
C        5.92867500       6.95751500      13.03484500       5.91862232      39.28640357      27.07788966
H        4.84813500       6.87644500      12.91483500      -5.48702327      -1.26845396     -10.97306297
H        6.41042500       6.01059500      12.87819500       3.73040887     -14.42072416       1.63217461
H        6.06751500       7.34670500      14.06235500       2.49547935      -9.53671424      -2.37088551
42
Lattice="20.0 0.0 0.0 0.0 20.0 0.0 0.0 0.0 20.0" Properties=species:S:1:pos:R:3:dft_forces:R:3 dft_energy=16.22837919392623 energy=-620656.8142737101 pbc="T T T"
H       10.54063000      11.08942000      12.77614000      -5.23935242     -35.52488771       9.74110786
H       10.93163000       9.40376800      12.10720000     -14.64742002       8.86732747      20.59886761
H        9.79107600       9.53260300      13.62939000      13.48467055      17.20305139     -31.75649869
C       10.13798400      10.01986950      12.64249000      54.72719982      14.46267415      17.12021793
O        8.44196000      11.32448000      11.58049000      30.82945129       1.19806330     -12.47858178
C        9.04464600      10.23381200      11.71349000    -104.47586004     -14.98112390      -2.54444471
N        8.40380000       9.07736400      11.26721000       1.93163118       9.07191071     -12.37181076
H        8.90297000       8.20995000      11.45716000      -2.01448834       0.46092493      -9.88504137
C        7.25380000       9.01393200      10.25746100       5.10333491      -7.32918484      41.23387857
H        6.89456000       7.95687000      10.31835700       9.96020769      13.36865631      -8.02732038
C        6.01375000       9.90727650      10.67702000      10.62709404     -69.75797640     -21.70509124
C        7.78892000       9.29138200       8.87769600      16.76233948      18.26045187     -44.00933264
O        7.91222000       8.46039000       7.96889000      -6.68087972       8.42918707      18.98770355
H        5.57518000       9.26999700      11.47799000      -3.69394556      24.78000188      -1.07831148
H        6.31755000      10.88993700      10.91350000       0.66937965      25.16158089      14.31964127
H        5.35737000       9.86778500       9.78783200      -2.20524229       4.83419135       8.34913843
N        8.14668000      10.63268100       8.71642800     -36.78480947     -12.32547617      61.82243644
H        7.94522000      11.23755000       9.60165200      13.41534641     -26.42742780     -41.61130999
C        8.64688000      11.31260000       7.57361000      51.02268381       0.34932137      18.01953568
H        8.19631000      11.09432000       6.59737000      -5.61638093      -8.54816388       4.18124092
C        8.45770000      12.77625000       7.89411000     -37.00712072       9.26183514     -11.12357337
C       10.20390600      11.03971000       7.36095000     -34.39259346       2.23224908     -33.23375458
O       10.79446200      11.44283000       6.37061000       2.78854862      13.86968614     -14.68462990
H        7.32727000      12.88331000       7.66313000      32.72229650      14.39903815      25.57799973
H        8.84654000      13.12212000       8.92219200     -18.18472858     -12.03763287     -32.63318240
H        8.94468700      13.27477000       7.07592000      11.14188206      21.38430416      -5.88526378
N       10.76709500      10.22323300       8.24039000      26.87584239      10.31341713     -30.21619930
H       10.35157600      10.21998200       9.11326800     -29.59725918     -15.40714146      51.35638770
C       12.16455000       9.99984307       8.24643000      33.62244377      -8.60271072      77.93869865
H       12.60069000       9.51135700       7.38576000      -7.44374149       1.29921729     -17.01095835
C       13.09566000      11.21613000       8.74218700     -24.53102750     -29.08852666    -101.67113578
C       12.30853000       8.94331000       9.44755140      -2.98666160     -24.88700991     -14.56387554
O       11.32020000       8.32577000       9.93191700      37.75037028      30.38897638     -11.96321311
H       12.77507000      12.15362000       8.32303000      -6.73136192      12.14037479      -6.37418263
H       13.06288000      11.20820000       9.74297800       2.69123413       7.84242046      89.43998785
H       14.07759000      11.00299000       8.34660000      15.77094506       1.70649956       1.58624292
N       13.58864000       8.64760000       9.87587900      41.19785372      -6.24614035       4.89354940
H       14.56311000       9.09909200       9.54303400     -75.69816622     -27.53542897      18.55955293
C       13.63512000       7.57083000      10.93994000      13.98735942      38.14356257     -13.37232990
H       13.08359000       7.91888000      11.79277000      -0.49934828      12.22036418      20.78799808
H       13.06858000       6.72523000      10.67241000     -14.89971248     -29.97054300     -23.60386160
H       14.64263000       7.26036000      11.21008000       6.24804825       7.02014139      -2.71030123
42
Lattice="20.0 0.0 0.0 0.0 20.0 0.0 0.0 0.0 20.0" Properties=species:S:1:pos:R:3:dft_forces:R:3 dft_energy=16.928951087524183 energy=-620656.1137018165 pbc="T T T"
H       13.30300500      13.43080000       5.50730000     -13.50031292      -0.21608630      20.02116646
H       13.09766500      11.78634000       6.27500000     -27.21120531      50.04396919      -1.63100143
H       13.08369500      13.18298000       7.32785000      22.78690330      19.92126860      22.14331459
C       12.75068500      12.93196000       6.35376000      29.27931617     -49.00469964     -30.09686698
O       10.61092500      12.15490000       5.88661000     -55.99612780     -23.41366460     -20.28945680
C       11.23756500      13.04998000       6.38148000      44.89999968      33.64732935      34.18782062
N       10.77397500      14.10549000       7.20307000      66.51941339     -10.16361775       0.71115070
H       11.54293500      14.71882000       7.62401000     -32.48031378     -31.33379920     -19.28550108
C        9.44543930      14.35191000       7.69231000      12.86549342     -11.56129901      31.14206167
H        9.58506600      15.24126000       8.37840000     -11.83112989     -17.52585301     -12.83717125
C        8.56000500      14.63660000       6.55882000     -28.22570778     100.18143709      -7.98379430
C        8.73867300      13.22708000       8.57405600      82.68639481     -21.21413414     -20.78124342
O        7.81932500      13.56506000       9.26436600     -38.26135435      -0.78934004      20.22890187
H        7.74339500      15.31495000       6.97819000       8.45684563     -22.53010773     -15.88293020
H        9.08687800      15.30553000       5.80875000      -9.36529994     -16.83829977      13.09041174
H        8.14824500      13.81437000       6.06281000     -14.48187161     -35.04980998     -17.45830642
N        9.37785490      11.95405000       8.55290500     -13.49924639      43.82778635     -16.12989004
H       10.11197200      11.79206000       7.80010000     -33.30189369      -1.72414463      26.91708136
C        8.66122500      10.83289700       9.13680700      -5.84767469       6.77037304     -32.42746154
H        7.73015500      11.18258300       9.57483670       3.97118286      13.41487240      19.87422299
C        8.19160500       9.84477300       8.11198000      -0.34748457     -34.88343205     -48.00453601
C        9.57328700       9.98663600       9.95614800      49.48202892      -5.45681691       1.23184845
O       10.71062500       9.68956000       9.48511625     -46.67801568       8.17102872      37.13415572
H        7.61984500      10.19742300       7.21674000      -4.45274269       6.58061450      22.80053112
H        9.07892700       9.41625000       7.61212000      -0.19777999      -3.50264649       5.55388255
H        7.68190500       8.99876000       8.62591400      -0.37996501       7.80696442      -9.56956321
N        9.03477000       9.61265000      11.15723000      -8.19201557     -16.72133751       0.41637736
H        7.98827500       9.75635200      11.24910000      39.29458026      -5.73482447       1.10277402
C        9.71175100       8.66095000      12.05457000       0.12151277     -24.88866895      -4.13347245
H       10.72762500       8.36799000      11.61781000     -28.12142531      13.04312912       2.49133175
C        9.89252200       9.27779000      13.43248000      39.52530521      36.86053276     -38.20826510
C        8.86683600       7.27311000      12.11789000      24.85323661       1.64464110       6.44152777
O        8.33454500       6.82001000      11.10888000      -5.73663757      11.36840016      14.36502785
H        8.94595300       9.51904000      13.82433000     -27.40590541       2.02121930      26.68908198
H       10.55665500       8.68324000      14.00057000       5.36561715     -26.77464100      29.05546438
H       10.50229500      10.23307500      13.39814000     -17.06227006     -13.07074027      -9.82902509
N        8.82986200       6.58943000      13.34298000     -19.53044637     -14.97401373      19.71258517
H        9.47052170       6.72760000      14.18799000     -29.42140102       5.74012155     -42.61621373
C        7.71046500       5.55997000      13.53560000      17.09853192      28.00955867     -42.28345787
H        7.71190500       5.16212000      14.49270000      11.18833515     -10.94604433      53.44120745
H        6.69699500       5.98352000      13.41038000      10.00429073       5.46630898      -7.81863695
H        7.81052500       4.68505000      12.88961000       3.12935082       3.79863094     -11.48506616
42
Lattice="20.0 0.0 0.0 0.0 20.0 0.0 0.0 0.0 20.0" Properties=species:S:1:pos:R:3:dft_forces:R:3 dft_energy=-0.29497763933613896 energy=-620673.3376305434 pbc="T T T"
H        4.80418500      13.26573500       7.94645500       3.28794312       1.65906289      16.31653195
H        4.66588500      13.09341500       9.78217600      -5.01628275      21.38880727      14.05431351
H        3.34055500      12.49680500       8.60113500      27.24545262       6.47205409      18.37302953
C        4.45584500      12.67819500       8.81794500     -47.84420173     -24.04895811     -36.87060550
O        6.45016500      11.49837500       8.41605500     -40.43291815     -10.54391693      14.82825529
C        5.24665500      11.41716500       8.80747500      76.39010407     -21.02974379     -24.32258107
N        4.75745500      10.19609400       9.21001400     -72.71094766       9.46539925      32.43528272
H        3.79758500      10.13220600       9.68659900      40.76223743      14.24439200     -24.31523390
C        5.49920500       8.99170000       9.38975200      70.30308927     -31.36745400      16.05843285
H        4.96188500       8.26331500      10.08972830      -1.48130869      17.93930928     -31.03244658
C        5.98126500       8.33808500       8.02219500     -53.57084951      34.15309930      33.76974275
C        6.75942500       9.20168900      10.35690600     -30.29974377      10.06015295       3.85855780
O        6.61937500       9.82315100      11.40089500      -8.82183425      16.79054314      10.79569983
H        6.79246500       8.90064000       7.57417500       6.32364118      -1.65339846      -1.85349044
H        6.08027500       7.28948500       8.16250500      14.80573976     -24.66695021      -1.46452870
H        5.05060500       8.49976500       7.48334500       1.02140407      -5.18139270     -23.60469112
N        7.89013500       8.53248500      10.11366400      55.16222360     -10.96327464     -20.15851121
H        8.10837500       8.08318500       9.20223700      -7.18272723      12.39788138      14.31217560
C        9.13118200       8.86531900      10.88010700      -3.10535401     -24.54157425       3.51244667
H        8.89718500       9.66115880      11.63261500       3.30198570      -1.09623266     -23.16362370
C        9.61850800       7.64509500      11.72062500      -2.81606497     -30.06641176     -21.53314368
C       10.34852700       9.08778800       9.88687900     -22.93064719      -5.75950861     -22.49372737
O       10.43849500       8.52814500       8.77940500     -15.06526089      -1.44092294      20.44007386
H        8.94195700       7.28973500      12.51665500      -7.91836891       9.57915009      -7.06868013
H        9.73136200       6.73426500      10.98862300       7.72922659      33.88018735      30.63830627
H       10.53476500       7.94621500      12.26128500       3.12491882      -9.98597020     -10.26695219
N       11.31989500       9.88721000      10.33994400      37.35978505      15.31316874      21.00675424
H       11.24227500      10.27465000      11.28832500      -0.08383587      -4.64412471      -7.11150705
C       12.73281500       9.81931400       9.86832800      -9.96241184      -6.31190941     -19.02728348
H       12.76251500       9.09324000       8.99093500      -6.25669895      24.59087141      15.42396886
C       13.29959500      11.25601500       9.52912800     -23.84904389     -11.83640326     -11.25586990
C       13.63104500       9.21876700      10.98116100      -6.35755669      23.60753518     -36.22286920
O       13.44385500       9.54448390      12.14429500       7.74879140     -13.67593407      13.86245747
H       14.36009500      11.22365500       9.63634800      28.68028452      -4.73969722      -6.22310341
H       13.06488500      11.58814500       8.45002500      -1.27805269      -4.88992322      40.50520486
H       13.03426500      11.94658500      10.36470900     -10.65548732      -2.19039389     -19.13073643
N       14.70069500       8.53434500      10.47392400      25.18208188     -23.34659202      31.10153371
H       14.87870500       8.33797500       9.49634300     -14.82908481       4.90971318      -1.37521314
C       15.77927500       8.09579500      11.39247500     -24.62464471      47.32385593      35.17720049
H       16.11230500       9.01603300      11.93145500      -0.51900671      -7.10278524      -3.77936238
H       15.43650500       7.46148500      12.22239500      -5.51291613      -6.72811494      -9.35183802
H       16.65944500       7.70913500      10.95081900      14.69659868     -15.96374911     -24.84399339
42
Lattice="20.0 0.0 0.0 0.0 20.0 0.0 0.0 0.0 20.0" Properties=species:S:1:pos:R:3:dft_forces:R:3 dft_energy=19.818810148863122 energy=-620653.2238427552 pbc="T T T"
H       10.08031000      11.00837500      13.13517500      12.54743191      -4.84848279      -7.93751896
H        9.91984100       9.15721300      12.87914500      40.73320424     -35.60511410      18.73315953
H        8.75665200      10.17958800      14.06442500      48.93928610     -17.42441462     -45.23441458
C        9.50211650      10.09148000      13.06906500     -86.89940633      46.36670882      54.38330470
O        8.01343000      11.23968500      11.47553500      25.32866984     -52.53916414      25.91217763
C        8.46467700      10.14400400      12.00721500     -34.63540569      94.26601435     -49.21978222
N        7.99368000       8.95886400      11.63046500     -37.25052547       7.92662855     -31.25369131
H        8.51786400       8.20671500      11.92018500      29.30574229     -52.98686771      19.65214874
C        6.90669000       8.61751500      10.68767500     -33.44848166      25.03821948      19.68118193
H        6.82355000       7.52203500      10.66678500      -9.71939815       1.94512865      18.00898893
C        5.53157000       9.40984700      11.09754500     -16.41642981     -53.45353174      17.52407547
C        7.24730000       8.79668500       9.21140464      17.64956994      -0.23307723     -32.73651684
O        7.39304000       7.82759500       8.44895800      -8.98565252       9.79579691      16.34378759
H        4.89757000       8.89924600      11.95368500      31.82226774       9.60363277     -35.10337325
H        5.61611000      10.42150800      11.44266500      21.68755283      16.00522509       3.63457566
H        4.86180000       9.49368600      10.23405500       1.60919691      -8.44895334      -3.87459123
N        7.38431000      10.09297400       8.83057100      17.88811607      19.47629059     -17.59896924
H        7.54584000      10.69855700       9.66429900      -5.42429974       8.66055194     -13.37280391
C        7.84285000      10.49463000       7.44590500      -6.75832130       7.53897034      -8.24652686
H        7.59491000       9.64571300       6.72029500      -2.74254584      22.17696939      24.39842287
C        7.13717000      11.87274500       6.94824500      -5.55904927     -52.98722322      83.64543796
C        9.38925440      10.60265000       7.23259500     -15.73847529      -7.10848522      -4.51032320
O        9.83221400      10.61210400       6.07481500      -2.88405003       2.98162524      22.83347490
H        6.10904000      11.83169500       7.32986500      -3.68550816      -2.66343337      -7.06644043
H        7.53851000      12.75989500       7.39178500      18.35383207      13.13022868      11.91344193
H        7.15814000      11.97433500       5.93557500       2.45010463       0.95154193     -69.98716081
N       10.15941200      10.68206100       8.35970900      12.20519582     -19.12907739     -92.77998925
H        9.84616200      10.60138800       9.24575510     -48.55130793      -7.84669841      79.19364330
C       11.56957000      10.65575700       8.30718300      27.34475797      56.74885758     -40.99130334
H       11.88154000      10.94255500       7.23722500     -12.33341585     -11.32630796      26.01871164
C       11.98649000      11.80894500       9.21332778      15.88589277      16.41631130      20.38793263
C       12.31226000       9.42145500       8.75567400      -0.43133715     -23.08754490     -16.19317053
O       12.15812000       8.96866700       9.87087500      -4.24078858      -9.99176499      26.50350659
H       11.58859000      12.83312500       8.90485100       7.13205543     -31.02284785       7.09667050
H       11.75977000      11.56823500      10.28984500      -6.20563610       6.62260005     -18.05259796
H       13.07320000      11.82252500       9.20923960      13.02215412      10.85259302      -0.40263696
N       13.13928000       8.84879500       7.80053500     -22.61021562     -21.44817717      84.57355189
H       13.28734000       9.47534300       7.10543500      18.53656339      45.37306285     -71.63055763
C       14.23703000       7.96292500       8.16275500     -81.35821543     -60.92951784      38.73927614
H       15.13820000       8.46168500       8.17100500      52.85852918      20.60739981       5.17448399
H       13.98384000       7.32644500       9.14523360      12.48071483      46.19736832     -35.56280860
H       14.15355000       7.16687500       7.45418500      18.09774752     -15.60113055     -22.59670630
42
Lattice="20.0 0.0 0.0 0.0 20.0 0.0 0.0 0.0 20.0" Properties=species:S:1:pos:R:3:dft_forces:R:3 dft_energy=-1.8390012207673863 energy=-620674.8816541248 pbc="T T T"
H        5.80401500      11.96810500       9.46038500     -37.61646212     -34.98878104      -2.03660096
H        5.96197500      13.78596500       9.35059300       3.15120274     -17.58380088      -5.90046769
H        6.76791500      12.90276500      10.55281200       1.90612938      -1.51230903      49.80376402
C        6.42261500      12.79219500       9.57208400      18.99706527      44.29433187     -23.42018226
O        8.54290500      13.55269500       8.97352500      44.77734928      12.73833992       4.73434089
C        7.74998500      12.63863500       8.87710500     -27.15219092      20.46626298      -9.81401079
N        7.89198500      11.50395500       8.16591500      42.18498204      -9.25888442     -13.28167525
H        6.99402500      11.18949000       7.88633500     -16.20916841     -24.25444196      -9.38104896
C        9.06353500      11.13638600       7.25063500     -44.73954689     -38.54398353      -0.76079508
H        8.65313500      10.10795000       6.81366500      19.39760473      50.50992220       3.04104254
C        9.38347900      12.24992500       6.24680500     -26.84455765     -26.79111289      -7.15892002
C       10.27046570      10.54300600       8.03859500     -24.35149576     -20.44552499       4.14579674
O       10.54319700       9.33104700       7.90808500       5.38111732      21.24506337      -1.88830656
H        9.32734900      13.23048500       6.62788500      13.40705122      28.05494524      29.54428843
H       10.31110490      12.04674500       5.77699500      27.73960929      -1.05854166     -12.75552282
H        8.63787500      12.36257500       5.46045500      -8.95405967     -16.46098686      -8.67741489
N       10.82854000      11.36127500       8.93052500      35.71615123     -20.94738434      12.04462453
H       10.42099600      12.24262500       9.10506500     -18.18141050      34.67308958      -0.15959483
C       11.93896500      11.00295100       9.85579700       4.96050348      -5.59150719     -14.19201376
H       12.63640500      10.30512000       9.25506100     -18.23106317      21.13935888      20.54269728
C       12.62818500      12.32154500      10.28846500      37.86093339     -39.54165860     -57.01513337
C       11.37289500      10.26482400      11.07677100      -5.56931161       7.25173141      33.82093595
O       11.47133500      10.74177300      12.23681500       4.02093034      -6.06228326     -22.15457236
H       12.00051500      12.98032500      10.78803600     -35.28954115      26.92869464      23.98520360
H       13.49591500      12.12224500      10.94360100      -3.74470031       1.57550657      -9.60279140
H       12.91447500      12.77361500       9.28865700       4.83901441      -1.66670632      26.27372967
N       10.71575800       9.12200500      10.83923700     -23.60030651     -22.80456021      12.93766163
H       10.65108800       8.73049500       9.91041100       4.93536904       3.73398766     -15.76976003
C       10.01102900       8.27278500      11.87569500      48.43837476      21.59891273      20.05493976
H        9.75303200       8.96547500      12.71570500      -4.41835318      -5.36406477     -13.62924396
C        8.77180500       7.63374500      11.26287500      -2.84956572      33.97439708     -41.10980614
C       11.23578700       7.37923500      12.44838500     -22.46635322      -0.39312593     -43.26726811
O       11.30258500       6.21403500      12.00383500      12.10743101      24.51799219      31.69227017
H        8.09199500       7.22449500      11.94047500     -17.18290591     -23.28722212      42.61088110
H        8.15533500       8.54266500      10.93027200      17.12033643     -23.77616467      -5.95483677
H        8.82968500       6.86019500      10.43766100      14.17009074      23.17571098      14.43079690
N       12.20277500       8.08410500      13.14555500       2.69979003     -62.20887406       5.26740203
H       12.18490500       9.07805500      13.32264500     -14.29380766       8.68930072      -5.45457720
C       13.48431500       7.36057500      13.50326500     -43.67207367      33.23885020       0.29589438
H       13.30603500       6.30138500      13.40050500       4.18019810      -9.45920156     -10.55119300
H       14.19598500       7.82201500      12.84539500      24.34628163      -9.04693032      -8.97059081
H       13.72968500       7.57385500      14.53954500       3.02958332       3.24203514       7.67991757
42
Lattice="20.0 0.0 0.0 0.0 20.0 0.0 0.0 0.0 20.0" Properties=species:S:1:pos:R:3:dft_forces:R:3 dft_energy=11.020180247956887 energy=-620662.0224726561 pbc="T T T"
H       11.13744000       6.21516000      12.16814000       7.97161221     -15.76893051      24.94483927
H       12.10679000       7.86307000      12.54784000      22.03512154     -12.14772197      14.57702935
H       11.43262000       7.37709000      11.04555200      17.72244916       7.83817806     -40.29723244
C       11.34521000       7.26483000      12.09192000     -70.27026400      43.78382181      -1.47205362
O       10.13177520       9.41028000      12.52148000       0.84127626     -59.40260927       7.35519620
C       10.06657110       8.16659000      12.25587000     -36.31648641      18.17038974     -12.66818626
N        8.79845000       7.63901000      11.89051000      70.20556147     -40.16391680      17.97545264
H        8.72456000       6.63851000      11.58157600      10.64565158      30.39276847      11.17496804
C        7.57682000       8.36658000      11.83367000     -16.29022433      12.16502338      -4.59545561
H        6.85605000       7.61393000      11.47274200       0.03054801       8.17452456      -5.76574185
C        6.98109000       8.88798000      13.12913000       4.59806267     -48.50912093      16.66587820
C        7.72026000       9.41279000      10.69854630      -7.89827083     -62.97641670       2.29352688
O        7.70456000       8.93700000       9.56126000      -0.12834327      23.74037682      -6.82807205
H        7.56236000       9.65854100      13.65198000      -9.26757068      -2.98189779       1.19753004
H        5.96769000       9.08077000      12.86831000     -23.29658384      33.74106507      -4.50290492
H        6.73335000       7.98206000      13.76577000      23.45063748      17.78407061       0.98397733
N        7.87585000      10.67106400      11.08782900      -0.85106696       1.81853211     -23.51059989
H        8.17508000      10.85101400      12.01913000      -0.18583728      -1.54448254      23.86101267
C        8.21626000      11.68036000      10.15972000      18.14088254       8.53178680     -58.02335519
H        7.90865000      11.42615000       9.07501000      -5.04627581      -1.37008197      38.46079456
C        7.48624000      12.93150000      10.59994640      47.13816205      48.38955161      12.33140131
C        9.78399600      11.80805000       9.83699200     -29.91840176      21.27457057      24.32708418
O       10.11283040      12.44180000       8.83950000       4.28202755       0.81384642      -6.48138026
H        7.72260000      13.23562000      11.71424000      -8.57336943     -10.72856799     -44.48417335
H        7.73312000      13.78484000       9.89878800       1.59607865     -12.59708458      19.25208329
H        6.44433000      12.79173000      10.47017600     -30.75029142      -8.04897084       4.26162137
N       10.63481200      11.34900000      10.77956800      12.11347466      23.72271990     -26.46700773
H       10.32675800      10.78030600      11.58692100       5.88893736      -0.09283142     -11.06342135
C       12.09471000      11.60056000      10.62675342      -4.53759069     -22.47820350     -13.50043142
H       12.36927000      12.59869000      10.14861800     -21.56739099     -21.93877876       5.57714465
C       12.59655000      11.63364000      12.04157000      34.11043829     -78.40891776      14.52785069
C       12.67970000      10.45051600       9.66423100      26.56109895      -8.28329828     -13.22372739
O       13.18695000       9.37187700      10.02014400     -22.41433050      21.02844026       6.02183825
H       13.67163000      11.21425000      12.15573000     -34.98688500      20.47574320      -2.43382234
H       12.45758000      12.58638000      12.40342000       8.39311482      60.98485865      19.66269549
H       11.92736000      11.06021300      12.74291000      16.94957390      -4.18428645     -16.50459589
N       12.61823000      10.82629600       8.32754000       1.95023612      -0.33847836      30.17697487
H       12.45823000      11.84806000       8.30443000      -5.61561066     -19.48411177     -26.43738203
C       13.04619000       9.96202800       7.21067000     -43.34216187      25.61935721     -14.29487419
H       14.03231000      10.06691870       6.90795000      62.74533624       6.97328538       5.65779765
H       12.87681000       8.89849000       7.33524000      -9.29577434      -3.08360874      13.94232836
H       12.60090000      10.27055900       6.23423000     -16.81732478      -0.89075592      17.32534628
42
Lattice="20.0 0.0 0.0 0.0 20.0 0.0 0.0 0.0 20.0" Properties=species:S:1:pos:R:3:dft_forces:R:3 dft_energy=27.472097184159793 energy=-620645.5705557199 pbc="T T T"
H        3.66486500      12.60080000       9.98567400      -1.76512290     -18.98675553      -4.83478386
H        3.52107500      12.35785000       8.24488000      11.16810672      23.06313332      -3.49916251
H        5.05753500      13.16881000       9.21209600     -17.31610306     -18.65636972     -30.70608987
C        4.25796500      12.37468000       9.06720200       0.90178379       3.02835089      30.98018685
O        5.97400500      10.86577000       8.47262000      76.03222561     -16.44048587     -37.38692219
C        4.89650500      10.96390000       8.94338300     -59.57526785      75.63216016      26.63492620
N        4.10291500       9.93697000       9.31612000      33.73964303     -44.17843613     -12.19156800
H        3.52874500      10.15620600      10.08626200     -23.34825106       1.81668347      25.15802581
C        4.88650500       8.69417200       9.43882100       0.50995073     -73.52174381      14.42676780
H        4.45057500       8.02246000      10.26972900     -11.14450097      22.69304908     -33.01144333
C        4.91848500       7.80239000       8.16992000       3.51032547      -5.58621011     -30.44573922
C        6.18877500       8.83813800      10.29858100       9.45870384      12.94832688       0.23829254
O        5.88560500       9.01834300      11.48534000      18.64321591       8.75554378      10.28691991
H        5.34584500       8.22615000       7.23562000      -1.68493205      12.78348949      12.73691789
H        5.45898500       6.83119000       8.19750000       3.23742538      10.23849966      21.97575163
H        3.92336500       7.45513000       7.84626000      -5.76122690       9.82419018       8.57359458
N        7.49943500       8.75297800       9.88408530     -26.97858432     -12.72293455       8.48616322
H        7.88266500       8.60668600       8.93252300     -18.07866857       4.58551322       1.38420750
C        8.60429700       9.01088100      10.78245800       8.66462844       2.14783954      -5.25645237
H        8.49489700       9.95867600      11.25795000     -18.72936745      23.30333850      22.80384920
C        8.88818020       7.93885000      11.88342000     -30.42405321       9.14663857      24.72703113
C        9.73270200       9.32142400       9.80736500      62.99016302     -53.41442581      -8.11412368
O        9.64769700       8.97511700       8.61729000      -1.88607870      17.68808335       2.28694997
H        7.85026500       7.76793000      12.35933000      30.77197743       4.76670400     -12.74675362
H        9.18947200       6.96918000      11.44242000       7.80275758       9.67904795       6.72402659
H        9.54037000       8.33099000      12.76438000     -15.06691993     -16.63684501     -37.92599143
N       10.98665500       9.62259800      10.33365100     -27.37426516       1.59184810      16.44913658
H       11.04408500       9.81345600      11.34464000       1.63770869      -4.04146687     -14.51315635
C       12.22027500       9.54161020       9.53086100     -30.93444477      12.48675848      -2.49787311
H       11.96737500       8.75652600       8.74202000      10.97845484      21.63422657      13.37150038
C       12.52032500      10.91568000       8.95396200      19.25409784     -17.42773270     -79.03010943
C       13.35105500       9.04669300      10.36053100      39.73173709      21.64726187     -20.35593687
O       13.34164500       7.98332000      10.90565000      -6.07361213     -49.56024077      31.43950370
H       13.26668500      10.75993000       8.02561000     -37.65355349       8.39960877      36.01584480
H       11.52492500      11.25533000       8.56431000      24.38621708      12.97392348       6.79114658
H       13.12312500      11.57043000       9.59301600     -20.54305279       6.65102887       5.88335588
N       14.55699500       9.75477100      10.22970800      22.48448415     -55.43892764      29.90145586
H       14.64556500      10.71338000      10.34435900     -19.63733589      54.25982478     -10.20024696
C       15.78452500       9.25551200      10.94218000     -14.32058930      18.32112530     -21.37340191
H       15.66245500       8.94802100      11.96735000     -11.13518665       3.90323336      17.84189998
H       16.15434500       8.37869000      10.45076800      11.20020913     -12.44149041     -14.76236773
H       16.47892500      10.11598000      10.85645000       2.32741868     -14.91559185       3.73450907
42
Lattice="20.0 0.0 0.0 0.0 20.0 0.0 0.0 0.0 20.0" Properties=species:S:1:pos:R:3:dft_forces:R:3 dft_energy=11.347421066719107 energy=-620661.6952318373 pbc="T T T"
H        7.58407500      10.74958100      11.82712500      -2.50168890       1.91348840      -4.12065044
H        6.73254500      12.35381500      12.36891500      39.70981407     -24.90288928     -25.11133571
H        8.50072500      12.09892100      12.47973500      18.72818242       3.57722030      20.19098097
C        7.67726500      11.83945400      11.85363500     -47.41865817      30.21228871      17.20684348
O        8.10501500      13.79903500      10.47003000       2.81300760     -37.09931590      -0.68735653
C        7.94848500      12.54908500      10.54264600     -17.10481257      33.64614433      10.19633637
N        7.97915500      11.71946500       9.48859200     -27.65938290     -19.21060731       5.23570253
H        7.82567500      10.74761500       9.66653800      -1.41890512     -15.24787370      15.61049227
C        8.03535500      11.95303200       8.07855500      37.03923498      24.87148604      -9.75275669
H        7.68821500      11.04147100       7.57466500       3.65898724       0.69925776       3.01012516
C        7.22609500      13.13594500       7.54021500      29.88403595      20.73538283     -50.76813980
C        9.57010500      12.06294500       7.81102500       3.72665233     -38.54327251     -91.54151649
O       10.08666190      11.48833200       6.77504500     -27.53246640      32.18097571      62.60479192
H        6.43642500      13.42517500       8.19021500     -29.49842784      -4.92636283       9.21740844
H        7.76249500      14.12990500       7.39505500       1.91890398     -28.00256701       8.89189310
H        6.94613500      12.84991500       6.47274500      -6.74471718       8.99859302      29.69846057
N       10.26569300      12.75860500       8.70744500      55.70283337       9.84594729      -3.76089964
H        9.84704600      13.19056500       9.53977000      -3.59776869       2.16860123     -10.12626566
C       11.77422500      12.65840500       8.71370500     -34.71539508     -56.01757681      40.14258629
H       12.16618500      12.16786500       7.79800500     -13.79384435      15.61618040       0.55602936
C       12.45772500      13.96621500       9.04653500      30.87306032      15.22784673      -2.83035641
C       12.12802500      11.41588900       9.78342700      68.32148546      61.28301169      -8.01577821
O       13.35197500      11.25442000       9.97626870     -23.04772796     -10.15619947      -5.79862638
H       12.43163500      14.58727500       8.09625500       4.44207744      -9.68153651      22.31123306
H       11.99407500      14.58945500       9.86446900       3.63084282     -17.57420216     -13.23818473
H       13.56357500      13.76466500       9.34432400     -38.45415841       6.38504933     -12.87651418
N       11.20309500      10.81710000      10.52772700     -61.88441340     -22.55096422      16.16129328
H       10.17038400      10.89385300      10.24421200      40.61458294      -3.36092900      13.21768374
C       11.53679500       9.63830500      11.39838500     -43.01047254     -33.18504993    -103.61327816
H       12.41766500       9.14516500      10.91540200     -12.40807262       4.07093852      -9.75849223
C       11.98810500       9.77253500      12.74846500     -48.40460147      12.07673879      79.85133383
C       10.23830800       8.60501500      11.24913500     -26.72688437      51.60168849      19.77219208
O        9.04657100       8.94531500      11.09268500      26.00164724      12.00528160     -12.90400683
H       12.84448500      10.37178500      12.78294500      35.77125503      23.46426530       6.90620095
H       11.23569500      10.10912500      13.52725500       9.39498489       8.60224856     -21.19600321
H       12.18277500       8.79744500      13.15867500      16.14908749     -18.26744353       1.25307230
N       10.54958100       7.36401500      11.57258500       7.82091220      26.65767874      -4.81521905
H       11.53022500       7.38290500      11.71143500      26.66075981     -37.50329194      11.17593976
C        9.60913200       6.30472500      11.73436500      11.06743860     -25.29442253      11.96653119
H        8.86148500       6.37044500      10.93558800       5.87642347      -8.94087031      -6.22027119
H       10.29030100       5.41054500      11.72550500     -29.58611992       2.28794540      -2.32968208
H        8.99854500       6.34581500      12.67382500      15.70221343       2.33723071      -5.71187048
42
Lattice="20.0 0.0 0.0 0.0 20.0 0.0 0.0 0.0 20.0" Properties=species:S:1:pos:R:3:dft_forces:R:3 dft_energy=14.435468229348771 energy=-620658.6071846747 pbc="T T T"
H       10.03641100      13.92626000       6.54969500       4.96101304      -9.94215971     -23.58715270
H       11.30728900      14.84278000       7.35578500      -7.31263000     -14.62715604      11.32649757
H        9.98625100      13.80850000       8.18006500       9.20325921       9.02460439      18.50314560
C       10.72627800      13.88956000       7.38302500      10.72290356     -17.01368392       3.46079130
O       12.45288500      12.50737000       8.46620300       5.90844293      -1.11622290      41.84156093
C       11.70743500      12.65277000       7.51953500     -10.27860101      28.22653730     -49.33129336
N       11.88527500      11.86294000       6.42314500     -43.90552418     -26.32681892     -53.29070889
H       11.25091400      11.80795000       5.58438500       3.64380703      24.18156274      36.69451034
C       12.73995500      10.68286000       6.25338500      27.34677251      11.10096304      25.01866652
H       12.66338500      10.36963000       5.20236500      -7.87383555       2.87265006       4.91742771
C       14.21996500      11.04611000       6.51939500       3.05786994      10.81410331     -52.11646465
C       12.42228500       9.34480300       7.07129500     -13.35905758      46.17627483     -46.02364322
O       12.32945500       8.37648400       6.33658500       1.90080860     -31.51214591      25.52538449
H       14.41132500      10.78764000       7.53702500      16.38206399      11.66584218      20.67091731
H       14.74730500      10.31185000       5.86226500       6.46826200      12.16751193      11.00239241
H       14.49562500      12.13764000       6.15982500     -11.20995006     -46.53367927      22.34536187
N       12.29481500       9.56090700       8.39885200     -19.75583869     -30.46706973      49.81573280
H       12.11052500      10.53455000       8.65155700       9.63199049       3.61219048      -0.63211526
C       11.76434500       8.57772800       9.41955100      -7.19540703     -71.35349809     -58.68400830
H       12.13734500       7.44507000       9.04434300     -24.71257379      64.74151589       9.10259108
C       12.28415500       8.66067600      10.82955500      13.15191469      -3.60742667      17.05018278
C       10.17940900       8.55398400       9.42415500     -24.06329695       4.62410959      -4.74993586
O        9.43472500       9.16730890       8.64235900      23.45158550     -11.94057907      10.16940068
H       13.28480500       9.03803000      10.71421500      18.87453337       7.27346482       9.52079931
H       11.70271500       9.33327400      11.47012500       1.82237160       3.73456832      -0.07097654
H       12.38091500       7.66931000      11.37845500      -5.41332638      20.06406447     -17.76274011
N        9.68062400       7.77247000      10.45230500      41.76962973      10.47016079     -13.38583921
H       10.39897500       7.53253000      11.12052500      -8.74989120     -11.69907037      13.99257355
C        8.30777500       7.51304000      10.72343500     -11.13202262     -29.29768410     -12.84001532
H        7.79580500       8.45263300      10.51491500     -13.97005802       2.38056719       2.25937437
C        7.79400500       6.34302000       9.79439900     -28.00979568      -1.11228387      42.88083048
C        8.13964500       7.03239000      12.19121500      13.23261510      19.85893613      38.49077577
O        9.07337500       7.08465000      13.00287500      -0.30708460      -1.31711121     -12.77353525
H        6.67856500       6.33887000       9.70972400      13.41250234      10.49860146     -13.21803925
H        8.33355500       6.28079000       8.87402300       1.89571298       3.90648033     -19.59348986
H        7.92892500       5.41040000      10.36246500      11.91320493      -3.56727792      -4.67654707
N        6.88773500       6.67564000      12.60126500     -21.40006504     -11.44330578     -14.73049048
H        6.22984500       6.41825000      11.87006500       2.82673023       8.59088414      -5.08933973
C        6.35084500       6.21195000      13.90412500      -4.33703655      27.83607057      -8.06859490
H        6.93719500       6.59172000      14.79763500     -18.93651034      -8.41597401     -24.55472806
H        5.25269500       6.45063000      13.85248500      18.35857219      21.01113885      14.54017498
H        6.19253500       5.15722000      13.89624500      21.98606138     -33.53996582       6.05066999
42
Lattice="20.0 0.0 0.0 0.0 20.0 0.0 0.0 0.0 20.0" Properties=species:S:1:pos:R:3:dft_forces:R:3 dft_energy=10.55005963507574 energy=-620662.492593269 pbc="T T T"
H       12.82144500      11.28725000       7.95291500       8.96035217       4.42796375       0.28885650
H       12.78700500       9.66596050       7.25179500       8.30657223     -12.78100093     -16.33501838
H       12.20441500       9.94340700       8.87641600      -4.18908581       3.97104066       2.41627208
C       12.25789500      10.36201700       7.86497500       6.21986828      13.52697605       5.54603766
O       10.21799800      10.07440700       6.64153500     -72.21205087     -99.52232452    -109.05682276
C       10.89936100      10.68478600       7.34024500      36.23732654     105.14824492     131.51322175
N       10.33632600      11.83820000       8.00292500       5.13608908       6.12132135       5.18892948
H       10.76724300      12.13066000       8.89557400      -2.39411206      -2.71482803     -16.77501928
C        8.89840500      12.31431000       7.81650500      29.46370652     -31.33569525      22.92792163
H        8.81481500      13.28438000       8.30379500       4.50952923       7.47628236      -1.96708722
C        8.62915500      12.37206000       6.32401500     -11.82931679      34.76895835      -8.10591144
C        8.01164500      11.45709000       8.79820900     -49.81040017      23.51889509       3.85395989
O        7.27937500      12.07820000       9.60013860      22.52335307     -12.73040023      -7.71476925
H        8.63580500      11.35807000       5.98988500      -3.50509950     -12.86987803     -19.24947623
H        7.69303500      12.92057000       5.98737500      17.24523839     -14.92116148      16.94471529
H        9.49044900      12.93452000       5.86895500     -13.16672754     -11.93216537       5.04352654
N        7.96888500      10.09128700       8.71061300       9.84837660       0.70391966       1.57724856
H        8.64049500       9.75180230       8.04281500       6.89570160     -17.37725050      -8.57598834
C        7.50686500       9.21494400       9.84267000      21.54179438       6.90506332      -6.68230176
H        7.47826500       9.98877600      10.61850500     -12.91585711      -4.59520675      14.44750579
C        6.14059500       8.58504000       9.52438710      29.59370409      29.84730008     -20.57457453
C        8.62417500       8.22604000      10.23974200      31.06242779       6.64761599     -19.53009086
O        8.48782500       7.02340000      10.47142800      -5.98321819      21.30360376      -0.44678755
H        5.62229500       9.56122400       9.39634700     -16.57546056     -21.42566164     -12.29454693
H        6.33822500       8.00332000       8.56739700     -21.38691122      11.24881898      23.46556883
H        5.68998500       8.02449000      10.34079500       3.06167388      -6.69595328       0.25118209
N        9.92174758       8.83564900      10.17750500     -45.31155990       2.32105508       5.85111127
H        9.89150090       9.84666900      10.32157300       9.33088672      -3.02459435      -4.10458146
C       11.00396500       8.06488000      10.73880500     -29.14161591     -35.84579329     -28.07580174
H       10.40813300       7.32963000      11.27865500      11.85964166     -16.73152875      15.67555030
C       11.75144500       7.29382000       9.56550880      -2.03199120      14.54313755      69.13085958
C       11.90943500       8.83877200      11.56809500      37.96474184      69.40578608       8.29662984
O       12.35240500       9.94649600      11.19155500      -7.00555369     -14.52678417      -2.42763650
H       11.95775500       8.04835000       8.89178700      19.18821028      34.56240797     -38.86074151
H       12.71130500       6.91651000       9.99257800     -18.03221548     -15.30238499     -15.63608887
H       10.96262500       6.71562000       9.13159700       1.30353079     -31.56322062      -5.19759203
N       12.27301500       8.32936000      12.77167500      19.45484158     -26.59522776       4.37915245
H       11.94675500       7.38236000      12.80467500      -3.38075451     -18.18745414      13.91045111
C       13.64179500       8.53430000      13.33194500     -42.67191004      -5.51745479      17.82139900
H       13.88816500       7.84224000      14.13104500      -8.81531659     -20.96480425      -1.34800489
H       14.37770500       8.46364000      12.58141500      24.36382005       6.58586418     -24.30847924
H       13.64101500       9.43481700      13.89600500       6.28780594      34.12655467      -1.26305024
42
Lattice="20.0 0.0 0.0 0.0 20.0 0.0 0.0 0.0 20.0" Properties=species:S:1:pos:R:3:dft_forces:R:3 dft_energy=2.707802549470216 energy=-620670.3348503546 pbc="T T T"
H        6.87514500      12.50802500      10.82454500      -7.85923601     -10.90800493       5.90616767
H        6.45250500      11.38077500       9.53484400     -15.41188158     -48.25007381     -17.19783727
H        6.06397500      13.19594500       9.47464600      -0.58473784     -25.25981971      -0.76886868
C        6.75398500      12.34192500       9.74858200      15.20699024     117.42454243      31.78576888
O        8.92483700      13.53159500       9.86811300     -20.96800383       8.49919853      -5.97360761
C        8.11417500      12.82186500       9.25357000      24.35777641     -53.36489164       0.69956232
N        8.49371500      12.08017500       8.16233500     -17.73619548      -6.14382504     -10.09968549
H        7.71412500      11.44233100       7.79905500      44.52932292      23.82178824       6.69274185
C        9.80307830      12.23532500       7.48847500      24.01056320       6.16937424      10.18671394
H        9.71182400      11.61248500       6.61037500       3.27222965      -2.25111473     -12.68880575
C       10.07131200      13.75181500       7.09901500      -2.15958317     -56.07730222      -9.71352041
C       11.02608500      11.54333600       8.26697500     -31.17299090     -31.16588073       0.10840103
O       11.43427500      10.42143800       7.88052500      -3.42919846      43.32604549      12.99667602
H       10.50913100      13.83536500       6.11081500      15.19039984      -5.26248417      -6.02342619
H        9.05855700      14.00360500       6.92363500     -25.39728296      36.77011512       6.75694667
H       10.66431700      14.27372500       7.82995500      -5.44814250      12.57610959       8.44062259
N       11.37609500      12.12204500       9.46941500       0.18177026       2.34180492     -37.74053455
H       11.03824500      13.05530500       9.67649900      -7.68434958       0.57366850       1.58986911
C       12.39043500      11.53702000      10.27313800     -16.73389881     -42.87893443      23.44767491
H       13.11132500      11.00613300       9.64556700       3.95785130       2.71116630      -6.65179914
C       13.06982500      12.45019500      11.24018500      39.58183104     -13.91388769      12.13539768
C       11.78586500      10.35869400      11.15886500      46.49836543      10.10864430      57.62637081
O       12.54233500       9.79638500      12.02859500     -36.14833093      12.60988288     -58.01814107
H       13.48285500      13.34482500      10.80782500       1.71968892      14.69624317     -10.36241804
H       12.52510500      12.67779500      12.13599500     -19.93311888       8.27945879       9.32393061
H       13.93602500      11.87471500      11.64272500      -7.00510338       6.42878872      -5.60579863
N       10.44964100      10.16245100      11.13352500      -1.13767428      12.16656391      -8.17361209
H        9.79400070      10.92068000      10.85927400      13.82761765     -16.97066740      -5.46850128
C        9.92019450       9.03000500      11.82092500     -55.34708797      26.75568055      25.20127933
H       10.63049100       8.22892500      11.72263500       9.96783927     -11.96961226       4.83468906
C        9.52590600       9.33814500      13.37161500      43.22875470      31.01870026     -54.11785843
C        8.54571500       8.64903500      11.18715500      54.61165960     -12.63654601      14.95742334
O        7.69639500       9.40281500      10.78690400     -25.48663407      41.32453321     -12.87355161
H       10.46943700       9.39535500      13.88918500      11.51411120     -16.12526843      15.17167640
H        9.23645000      10.40744800      13.42178500     -19.11604208     -13.42139005      -2.56690099
H        8.83607500       8.59364500      13.68151500     -16.82846404      -9.90658517      18.86647518
N        8.36728500       7.33119500      11.21306500      22.61649627     -53.82017940      17.88681254
H        9.16630400       6.69128500      11.45454500     -26.69500712      22.57028018      -6.70245908
C        7.11631500       6.76999500      10.80615800     -15.71643377       8.42341599     -13.18711002
H        7.08678500       5.72627500      10.95674000      15.73669775     -39.23864694      -5.23906801
H        6.27109500       7.00839500      11.48196500       2.53202561      22.66437140     -12.59992865
H        6.98231500       6.99858500       9.72006000     -14.54266354      -1.69499294      17.15837583
42
Lattice="20.0 0.0 0.0 0.0 20.0 0.0 0.0 0.0 20.0" Properties=species:S:1:pos:R:3:dft_forces:R:3 dft_energy=18.574373232549988 energy=-620654.4682796715 pbc="T T T"
H       11.36962500      11.09612000      14.78946000      -1.76838172      -4.97612215      -8.26880538
H        9.95266600      10.41506400      15.47867000     -12.66261663      16.60698231     -21.38181560
H       10.00033000      11.20159000      13.77378000     -36.73444578      22.43518699     -35.40591090
C       10.42961212      10.58027400      14.47799000      64.67148074     -37.01636394      86.02414465
O        9.75799300       8.27147000      14.15168000      38.40616477      49.97914816      22.40804985
C       10.68166800       9.15188900      14.08388000     -51.21525086     -87.86176756     -81.50551441
N       11.73831500       8.81578100      13.18271000      41.60028923      94.74073657      51.52086958
H       12.45991500       9.58704000      13.17458000     -18.68030729     -23.94609768      -2.25048666
C       12.21634500       7.56418000      12.67491000      11.57977360     -18.46024759     -19.40329287
H       13.38528500       7.48579000      12.59677000     -42.28322086      22.89118576     -10.35331703
C       11.95519500       6.41262000      13.60732000     -17.22106381     -24.19471655     -13.04727672
C       11.52948500       7.35597000      11.26047000      12.85707972      12.55288304     -17.40569118
O       11.52799500       6.28713000      10.68670400      -2.26825023     -24.03047167      -1.63666586
H       12.17104500       5.47452000      13.07725000       8.54568718       1.38331873      -1.17685841
H       12.65364500       6.51933000      14.44289000     -11.80872101      -4.17853906       9.97823197
H       10.87229300       6.33189000      13.80708000      11.00207245       5.31815678      16.37388730
N       11.07115400       8.51624000      10.66135400       7.19236151     -25.66936539      39.89515245
H       11.08979500       9.28012600      11.30901000      -5.36580676      21.36273665       2.42383256
C       10.26070000       8.63902000       9.52197100      -4.76415619     -38.96857906     -76.97254533
H       10.49505050       7.88876000       8.70094000      28.58891886      10.19377671      22.00312578
C        8.78913500       8.25191000       9.50073700     -28.86799295       4.27953900      16.37293928
C       10.48171000      10.00422400       8.93767700       1.82440985      20.72839117      29.14078639
O       10.72247700      10.92034000       9.72670730       4.92485784      14.72681689      11.51840100
H        8.45526500       7.97998000       8.49767000       3.17502180       2.27581071      -6.27100224
H        8.60255500       7.38504000      10.10454500       5.39002873     -21.02986229      10.40409548
H        8.05726500       8.95283000       9.88217310      -1.50140677      19.48055669       5.38745722
N       10.37331140      10.23666600       7.63034000      -3.10875504      -5.46104746     -64.78630995
H       10.21336100       9.49554700       6.92268000       0.23932588       8.74280473      18.25820031
C       10.57955800      11.56980000       7.03904000      14.29890328      49.94715241      70.66321928
H       10.67103700      12.26653000       7.99197000     -10.87605658     -28.44126437     -33.54186186
C       11.95174500      11.76297000       6.34844000     -13.13982740     -44.04606850      58.68246776
C        9.37884500      11.97753000       6.18043000      27.44441882     -15.43167154      12.48107034
O        8.98356500      11.14858000       5.37960000     -19.01365566      -7.01945407     -19.38741349
H       12.31230500      12.73941000       6.41336000      10.18473494      44.34410304       5.33650101
H       12.67174500      11.10037000       6.87994000      -4.84524766       6.62501750      -9.06339036
H       11.87039500      11.50527000       5.36181000       1.26009952     -21.64275877     -65.52446389
N        8.88512500      13.22967000       6.33359000     -49.17143308     -12.89073452     -36.45240912
H        9.18060500      13.75040000       7.13698000      -2.95007979       9.83676332       8.27886627
C        7.59549500      13.54632000       5.58655000      -5.95437461     -37.42804267      28.62055911
H        7.65248500      13.36302000       4.52133000      11.80196635      -1.23798690      -6.38512044
H        6.61471500      13.04513000       5.91765000      36.80507345      -8.60564959       1.64132302
H        7.31006500      14.52548000       5.78707000       2.40840349      54.08562567       2.80697581
42
Lattice="20.0 0.0 0.0 0.0 20.0 0.0 0.0 0.0 20.0" Properties=species:S:1:pos:R:3:dft_forces:R:3 dft_energy=9.612122922204435 energy=-620663.4305299819 pbc="T T T"
H        8.92316000       5.23423500      11.25482500     -25.46909566      41.31339395     -16.07952635
H        8.24892000       5.94825500       9.77540400     -20.57812962       6.11506441      -2.60582916
H        7.91989000       6.79955500      11.47568500     -18.31875525      -5.42932426     -10.69069450
C        8.54916000       6.27219500      10.76708500      50.94980459     -81.54817542      14.39121696
O       10.79641400       6.83260500       9.86385500     -20.21515554     -18.19776389      -3.46839918
C        9.84550050       6.97580500      10.63673500      28.28081158      66.45826595      28.88636088
N        9.85325910       8.03735500      11.59932500      -2.91737302     -46.73205295     -45.03035276
H        9.19167400       7.76625500      12.30862500       0.04997583      21.04846723      16.96391274
C       10.89031000       8.97181800      11.83842500      51.12886232      30.21702882      36.03812333
H       10.55314100       9.60257200      12.63566500     -17.97616365      15.24277808       8.48879398
C       12.24441000       8.47006500      12.47463500      13.81007924      -7.99722067      25.53249466
C       11.33079000       9.98400550      10.76699500     -11.76252862      18.87927349      15.40631194
O       11.48044000      11.19503500      11.03453500      -4.44234999     -33.39302235      -5.85314952
H       12.33477000       7.40217500      12.33935500       0.73107577     -14.49573643       2.76885346
H       13.21242000       8.87398500      12.15768500      -7.26104573       8.34117504     -25.53711627
H       12.39182000       8.73134500      13.55785500     -21.90370193     -10.93627970      -9.76888492
N       11.57434000       9.40735700       9.58113800      11.18281292      38.20459151     -15.61309933
H       11.44622000       8.42385500       9.46875600      -2.34759971     -28.66559017       0.21926573
C       11.84331000      10.22270500       8.42724800     -20.69449937      55.30762654      17.56922504
H       12.11708000      11.30229500       8.77916000     -13.98937397     -36.36862764       0.92817436
C       12.98996000       9.83498980       7.61157500      57.50348341     -12.82579498     -54.52337501
C       10.58516300      10.48722300       7.59702500     -50.45031529     -13.30703485      16.51241707
O       10.66748000      11.03000500       6.50693500      -6.42880057       4.88944920     -12.46104337
H       13.92960000       9.90292019       8.20837700     -10.66917439     -10.26624117      -3.71567898
H       12.94174000       8.85313500       7.03932500      -2.35137995      15.71003462      21.76327612
H       13.17821000      10.58285000       6.78349500     -11.17123520     -10.82747043      16.70320658
N        9.32446900      10.11878300       8.18360100      55.08258972       1.35197474      11.82128230
H        9.42552500       9.65959300       9.12836300     -13.19469420      15.51272746     -32.20752034
C        8.04792000      10.18503400       7.47322500       8.96877772      41.97357304      30.19723885
H        8.31580000      10.14363200       6.44293500       3.23428505      -9.35116255     -28.92428178
C        7.10929000       9.12292900       7.90525500     -53.64396574      13.62414834     -36.98958231
C        7.31559000      11.59946500       7.58974500      23.85947213      62.98613393      -1.91685388
O        6.27048000      11.84832500       8.17915900      -1.47290684     -25.48450102       5.94469293
H        6.07040000       9.56020600       7.71716500      21.16507398     -15.10401130       8.27708873
H        7.21059000       8.30916500       7.21471500       1.38375719     -23.77213557      -3.62965779
H        7.10877000       8.79475500       8.91856900       9.18875447      -2.86371495      23.48843987
N        8.00682000      12.69694500       6.99759500      -5.52570258     -43.49503049       7.27711471
H        8.82191200      12.40551500       6.44214500       0.28576002      13.81825593       8.43389163
C        7.74493000      14.08811500       7.38184500     -51.04436982     -14.07801407      43.26940116
H        6.56108000      14.21767500       7.64886500      61.91593514     -10.32795743     -15.63608887
H        8.30841000      14.36447500       8.33699800     -11.42900249      -4.66111801     -24.01056320
H        7.97589000      14.76576500       6.58261500       6.53584415       9.13362696     -12.21917915
42
Lattice="20.0 0.0 0.0 0.0 20.0 0.0 0.0 0.0 20.0" Properties=species:S:1:pos:R:3:dft_forces:R:3 dft_energy=16.829857036937028 energy=-620656.2127958671 pbc="T T T"
H        7.11721500      14.52697000      10.95699500      -9.32410836       1.98075059     -18.06527776
H        6.12629500      13.26128000      10.05515100      46.78786777      10.89481557      -4.29771733
H        7.00165500      14.53496000       9.11713000     -15.72946908      20.09049060      -3.79189998
C        7.08770500      13.93290000      10.01251100     -43.61199275      -6.22815163      36.63916953
O        9.38076100      14.34817000      10.02920200      28.99384292      26.48466465      13.43608440
C        8.50560500      13.53601000       9.79290000      -8.83376748      12.89760768      16.13166758
N        8.73971700      12.40147000       9.18721000     -21.70663178     -75.18694515     -49.25106696
H        7.87293500      11.81423000       9.16524000      29.33098339       4.31618006     -11.74508500
C        9.80476100      12.22753000       8.10490000      -4.28965913     -23.91398342      20.94726584
H        9.43241700      11.47469000       7.35631000       7.85713851       0.18120263      25.16560999
C        9.86681400      13.51480000       7.30158000      78.45454134      -1.56211575      17.96324685
C       11.09526500      11.68764500       8.80196000      17.02529719       5.37052317      -8.13271677
O       11.90104500      10.96616890       8.25082000       5.93386178     -31.85805559     -40.29877298
H       10.28925300      13.45762000       6.28803000       6.02958834      -9.10094389       7.10920809
H        8.86636900      13.65177000       7.20531000     -72.65062973      35.29226671     -14.16748368
H       10.39451300      14.28033000       7.91140000     -13.18260691      -0.49485940     -13.99624713
N       11.35018500      12.03361900      10.07535400      -9.53134606      58.29437109      46.65751469
H       10.89898500      12.92320000      10.42559900       5.36452693     -26.76836035      -6.18344052
C       12.22243500      11.31024000      11.05706000     -51.21181428     -26.11860950     -42.37446802
H       12.79302500      10.56209000      10.47254150      -8.65313366       0.30150667       0.77145322
C       13.14808500      12.11777000      11.83042000      33.79924994      68.02819103      -1.98754080
C       11.27472500      10.54157000      11.97258000       9.65822701     -45.16117985      35.82789936
O       11.75798500      10.01920000      13.01286000     -29.83710884      19.65404479     -29.47982290
H       14.10386500      12.18109000      11.33587200      15.36779853      -0.91452165     -12.50856299
H       12.85254500      13.18809000      11.85979000      -6.07914621      -7.07824331       5.11363280
H       13.41152500      11.82589300      12.82526000     -10.26558940     -15.86764334      17.97237156
N        9.97459000      10.37264000      11.53724000       1.28857574     -28.05269369      67.35177706
H        9.78670290      10.51360600      10.59097920     -12.15044753      11.53503879     -42.44616221
C        9.00464800       9.46855000      12.24273000      34.53657436      -6.09862807      31.66560704
H        9.62414220       8.80226000      12.91116000      -6.52794001       9.89894174     -12.54529886
C        8.05176500      10.31090000      13.14167000      11.72957299      30.80658025     -46.37500402
C        8.25334500       8.59394000      11.22697700      30.94096242      19.66245849      27.62217302
O        8.26015500       8.94847000      10.05362600     -16.91378606     -12.17272606     -15.00162488
H        8.65851500      11.07606780      13.67097000      -6.31264412     -18.02723836      11.11656986
H        7.62767500      10.95386260      12.33025000     -16.78011490      -3.64441139      15.40121632
H        7.26388500       9.78871000      13.71197000      10.51278624       3.15508963      -1.84794450
N        7.75619500       7.45151000      11.76969000     -24.08178339     -17.43626490     -60.61453740
H        7.61477500       7.34301000      12.74572000       6.06336164       5.01490812      23.79168853
C        6.86626500       6.56488000      10.91481600      43.93064678       3.66264897      22.23396923
H        7.21341500       5.46504000      11.08816000     -14.08073963      40.86651989     -23.52268718
H        5.89613500       6.71819000      11.30936400     -33.56769547      -7.49425924      11.93963105
H        6.83919500       7.07636000       9.92432800      11.71662063     -25.20898201       3.77530958
42
Lattice="20.0 0.0 0.0 0.0 20.0 0.0 0.0 0.0 20.0" Properties=species:S:1:pos:R:3:dft_forces:R:3 dft_energy=8.943814207916148 energy=-620664.0988386961 pbc="T T T"
H        8.76671800      10.77008400       7.06111500       5.87058128      21.40302761      -4.68059987
H        9.68528600      12.17707000       6.12028500     -25.36161362     -18.30773448      39.24871968
H        8.59364200      12.49329000       7.61264500     -10.02455471       4.00039380      -7.25707588
C        9.26299100      11.77369000       7.14973500      19.80833543      16.23038041     -30.92377951
O       10.64538000      12.32549000       9.08376400       7.42956856      20.89761317      18.80141715
C       10.43909900      11.65977000       8.09726500      -7.42741181     -81.96566078     -30.91323277
N       11.12664000      10.45249600       7.77406500      12.56129674     -27.75691070     -18.29434367
H       10.75619000       9.81118800       6.97690500      16.46383093      40.05252416      43.18881925
C       12.36279000       9.92750700       8.46560500       4.02072888      75.73229503       8.28852425
H       12.99593000       9.31369200       7.86405500      -2.04246685     -15.33509176     -25.18255589
C       13.26765000      11.15497000       8.89412100     -30.49598441       2.58151238      24.41027315
C       12.04494000       9.13284400       9.68495780     -58.95668324      18.12713622      37.84730557
O       12.15546000       7.93122000       9.74093630      13.38820927     -24.70214554      -0.63633159
H       13.35356000      11.93598000       8.09809500     -13.06434112      -5.57040184      18.14953325
H       12.90878000      11.46069000       9.95486100      13.96733245       9.14040532     -46.95661576
H       14.26495000      10.82639700       9.04852800      28.25888856     -16.77110869       3.43673524
N       11.38290000       9.83419700      10.74820500      -4.61634765     -55.68162137      18.14574116
H       11.11097000      10.78878200      10.78569500       9.43928123      29.00995930     -21.14374348
C       10.59622000       9.11376600      11.79012500     -11.55299197     -43.69364118     -18.76705134
H       10.75570000       7.99365000      11.77106500      18.32953900      24.75179821      -3.39395573
C       10.76179000       9.64275100      13.17301500      -9.06386437      67.60963915      25.19251012
C        9.02960400       9.01197000      11.51010500      26.75390301      76.04822349     -43.53567695
O        8.42266000       7.97337000      11.60878500     -21.16187441     -15.44103326      10.39825329
H       10.04446000       9.21382600      13.87971500       2.14943933      -6.64013846       0.23658847
H       11.73891000       9.72012600      13.62652500      20.15353409     -24.59098991      -1.55853697
H       10.57139000      10.78087200      13.25717500     -10.28633924     -26.13662193     -13.85949490
N        8.51680000      10.22855700      10.97671500      56.84093426      -2.75655287      26.27159662
H        9.15175400      11.04628000      10.81738500      -7.13601342     -28.46780900       7.07996160
C        7.18895000      10.56756800      10.67402400     -37.17492069      17.47169724     -35.73238611
H        6.54818000      10.17327900      11.44407500     -15.97536239     -14.40057869       7.90599721
C        6.91061000      12.12409000      10.62857500      37.91343013     -16.26036162     -26.79632701
C        6.81540000       9.95511560       9.25007300      -6.27666667      27.19319289     -25.42027250
O        6.34842000      10.66258700       8.32299500       9.72902058     -17.17058162      33.76405461
H        6.81762000      12.52826000      11.64544500      -1.17311135       0.97994468      -4.65877165
H        7.79643000      12.63138000      10.06202100     -30.79840355     -13.95003104      21.51394623
H        6.01498000      12.24815000       9.99117100       5.32963970       4.82634646      10.26548275
N        7.19972000       8.66330000       9.02021600     -22.96335396      -8.32201314     -11.90597626
H        7.33117000       8.05483000       9.80165500      10.18647694      -5.47290959      23.21884600
C        6.68951000       7.99341000       7.81860500     -13.14302698       1.74860361      19.01768476
H        7.41168000       7.36862000       7.35927500      24.98678926     -25.43307081      -1.27049221
H        5.73505000       7.40001000       7.95374500      16.40375001      17.94487891       0.30712608
H        6.60911000       8.79468000       7.13081500     -21.28914642      19.07741017     -23.80211678
42
Lattice="20.0 0.0 0.0 0.0 20.0 0.0 0.0 0.0 20.0" Properties=species:S:1:pos:R:3:dft_forces:R:3 dft_energy=2.4013023460283875 energy=-620670.641350558 pbc="T T T"
H        7.35535000       8.01286000      13.16059000       3.95184320     -37.00712072     -24.43989885
H        8.28462000       6.56798000      12.29710000     -29.49273971      22.48092907       2.35229242
H        6.49716000       6.54167000      12.58055000     -17.31420701     -10.33634743      -0.88193575
C        7.31354000       7.18931000      12.32890000      34.11825948      46.55453576      27.61292980
O        6.53504000       9.16826100      10.95795000      27.15752354     -59.87199886      19.58874975
C        7.10930000       8.01934000      11.06281000     -15.96291959      52.43701472     -29.31676305
N        7.71158000       7.47688000       9.97307700      -4.79217026       7.79749605     -27.71270916
H        8.04187000       6.52898000      10.12672900       4.44791962       0.40452945      -9.43278728
C        7.53308000       7.92695000       8.49005200      21.18889305     -48.76923458      25.05717993
H        7.91510000       7.03877000       7.91412000       4.42273778      15.70553151      13.81671539
C        6.08469000       7.95100000       8.08411000     -10.34426341     -41.70788977       6.55468609
C        8.42912000       9.08118600       8.01584000     -19.19223938      11.58446631      10.28370848
O        9.05692700       8.92318000       6.97482000      10.84760405      10.17052646       1.20960547
H        5.50784000       8.73521700       8.49299100     -13.05960101      31.67591678       6.84145102
H        6.01920000       7.89028000       6.98318000      -4.25844550       1.78624010       7.45877950
H        5.63164000       7.02300000       8.57269000       7.78967487      17.18266891     -21.42945373
N        8.32558000      10.23470900       8.76382200     -16.69479288     -16.06281745      27.18406817
H        7.61670000      10.19278700       9.56954900      24.40944363      -1.52886387     -25.32689230
C        8.93334600      11.51400000       8.43312600     -29.35575047       2.68468092      20.01832239
H        8.78813000      11.71619000       7.39666000       3.19017831      -4.04482050     -28.34978021
C        8.12839000      12.71152000       9.10987900      61.56350782     -23.44791191       8.49870082
C       10.44382200      11.69389000       8.64760700      -9.96928501       9.87489753     -18.67201209
O       10.96312000      12.55315000       7.92594000      13.61217956      -9.90579121      21.70307669
H        7.21743000      12.90423000       8.51936300       0.48743164      -0.90797556      18.71289556
H        8.13103000      12.50957000      10.23961200     -17.73192938      11.67480099     -32.38705208
H        8.92216000      13.47102000       8.90813300     -23.97062776       9.75139391       7.36946394
N       11.02527000      10.90793000       9.59896500     -13.53242718      17.33423399     -24.72134299
H       10.41348200      10.20328000       9.93282700     -14.17246080     -21.38845176      16.32541966
C       12.38953000      10.95618000      10.00242300      17.50381149      -4.13152900     -47.08222873
H       12.79671000      11.80285000       9.46551400       3.26937373      18.58846762      -9.08809819
C       12.57532000      11.18606000      11.41382000      15.05779521      13.56146036      60.67497383
C       13.26626000       9.83328700       9.42432100      31.26483057     -22.20102546       6.58460805
O       14.25925000       9.39510600      10.06905100     -46.58036937      15.48144272     -34.29553967
H       12.17641000      12.16011000      11.71986000     -23.98840318      -6.87184698       3.40246423
H       12.32556000      10.32680300      12.06216000      -8.57681786       9.06958805      -1.21517511
H       13.59709000      11.42442000      11.67273000      22.22614805     -11.54385540      -6.75776434
N       12.93367000       9.43895500       8.11470000      17.97177905      -1.72746271      44.56060766
H       11.99222000       9.63099610       7.84764000     -19.12647033       7.07830256      -7.32103185
C       13.45382000       8.13868000       7.75936000      25.78194305      31.20214259     -26.28617246
H       14.49216000       8.27850000       7.43370000      11.60225358     -10.73893699      26.88674465
H       13.18276000       7.42849000       8.48734700      12.02293852     -27.66388601      28.28768474
H       13.11436000       7.76524000       6.83941000     -35.77220305      -4.22352272     -36.26813726
42
Lattice="20.0 0.0 0.0 0.0 20.0 0.0 0.0 0.0 20.0" Properties=species:S:1:pos:R:3:dft_forces:R:3 dft_energy=5.256593715050258 energy=-620667.786059189 pbc="T T T"
H       11.33748500      13.75867500       9.68061400      45.38906073      23.63135425      55.43655758
H        9.95784900      13.39962500       8.91655500     -37.55116707      11.18073912      -6.40245740
H       11.26253500      14.01492500       7.88235500       5.48070707      24.23536301      -7.03717024
C       11.00157600      13.47304500       8.76442500     -16.52106778     -87.33229706     -54.67470308
O       12.56770500      11.61154500       8.12670500     -36.26126410      14.11297239       8.29440199
C       11.38964500      11.98657500       8.35069500      25.41256982      -1.89512047      -0.30169391
N       10.30966700      11.14618500       8.15079500      22.08394469      -1.86128792     -16.82443494
H        9.45713500      11.30341500       8.62026500     -25.55074409      24.26866230      14.86131757
C       10.27256940       9.78113700       7.66544500      27.95030727     -42.32860743      -3.26067563
H        9.22402100       9.48876100       7.50789500       0.64707032       8.19862803      -8.26731225
C       11.17068200       9.34072560       6.43004500     -84.49131094      -7.26206485      13.04893576
C       10.76877400       8.74385600       8.66555500      38.03062940     -44.69498983      19.45981870
O       10.62018100       7.49569500       8.53219500     -13.47530883      58.73496450      11.24454103
H       10.88019300       9.96930200       5.64427500      -1.76741000      28.49779021     -36.57375598
H       12.17307500       9.44069600       6.66033500      50.58896357      -2.21863311       8.34259708
H       10.78387700       8.33154600       6.14665500      17.85529080       9.98390825       9.21628267
N       11.61143500       9.26354690       9.65280800      -0.24001438     -12.09167014      25.00029858
H       12.24824500      10.07866100       9.49496300     -23.16931183     -11.49211708      -7.66832800
C       12.09706500       8.37924200      10.77191400     -14.39394253     -18.54497709     -41.08029894
H       12.53431500       7.43404500      10.27723200      -8.63711209      26.17051373      23.07652414
C       13.04701500       9.20517250      11.58861500      16.01020221      27.62323955     -34.66751995
C       10.96816500       7.90420500      11.73209500      11.81457505     -27.42451035      -4.89978265
O       11.00355100       6.75837500      12.21095500      -9.86707634      30.45367891      -3.76356596
H       12.56467500      10.17417900      11.92911500      16.10808552     -20.22404325      -9.74190183
H       13.36810500       8.64632700      12.40852500       9.47157325     -21.19742525      42.29578216
H       13.98653500       9.32681840      10.98542400     -13.90665902      13.82560310       8.10108837
N       10.10389590       8.91799800      12.03181500      19.31014967      14.35436259     -30.28670847
H       10.13548320       9.66558900      11.26835500      -2.48570287     -21.82003896      29.52118038
C        8.85463500       8.80319900      12.71509500     -24.03082718     -10.73689874      30.37143797
H        8.74347500       7.94600500      13.44647500      19.82539984       4.37014624     -26.57117169
C        8.56782500       9.99760700      13.59895500     -32.16355580      -1.03756785      15.23827497
C        7.82771500       8.64354100      11.58405500       5.05897931     -73.41307674      27.81082948
O        7.42859500       9.53059700      10.89185100     -13.61644566      52.47102503     -31.90190162
H        9.34915700      10.17751500      14.35572500      -3.16236570      -6.87790248      -2.05573916
H        8.49475500      10.89900500      12.98854500      -7.56550312       6.35517478      -0.32028581
H        7.55786500       9.75317700      14.12080500      33.28482929      18.44827880     -14.79602253
N        7.47788500       7.31376500      11.36390500     -11.86319675      19.30849063     -42.80889928
H        7.95503500       6.59537500      11.85261500      16.49476016     -14.67775673      14.07054839
C        6.90634500       6.93405500      10.04487530     -67.18480661      52.94586574      21.75806199
H        7.52486500       6.99253500       9.17699900      26.82524169       2.53291439     -10.59039373
H        6.39688500       5.98507500      10.05928320       1.63444986     -16.82953057       8.82325628
H        6.01346500       7.68984500       9.83553800      38.62788351     -27.74351989       8.52286354
42
Lattice="20.0 0.0 0.0 0.0 20.0 0.0 0.0 0.0 20.0" Properties=species:S:1:pos:R:3:dft_forces:R:3 dft_energy=5.5630939186085016 energy=-620667.4795589854 pbc="T T T"
H       10.95188600      10.67898800       6.32670500      -9.48268881      -9.34940871      -0.92220775
H        9.52154500       9.95014500       5.54563500     -20.09700825       7.94217612     -13.14338249
H       10.84416640       8.93541000       6.02503500       2.81875499      -5.68278989       4.31849087
C       10.25392200       9.80380730       6.30786500      22.83347490      13.68636231      25.90459345
O       10.03076500       8.66847000       8.45138500       0.08101112      25.90542297     -11.72742809
C        9.67701500       9.60818600       7.70761500     -29.97895670     -20.99360043      13.06220807
N        8.61364500      10.43078300       8.10061500      27.46361627     -18.56571508     -16.43941935
H        8.25489500      11.10230000       7.44917500       3.09248460       7.96765422     -10.82390349
C        8.09094500      10.54985300       9.44753800     -31.17630898      10.34535364      -5.86719210
H        7.60296500      11.57331000       9.39899200      15.03290962     -16.06945361      14.31075356
C        6.87295500       9.54730200       9.75025200      88.36670799     -35.97140626      15.40571943
C        9.31852500      10.61470000      10.45549900     -38.73678758     -11.81471725       3.09723657
O       10.20370700      11.45567000      10.29238800     -23.02722697     -22.65489118      13.17751129
H        6.61680500       9.59143700      10.80255300       3.40439582      -2.66588638      15.34741605
H        5.95799500       9.73495000       9.31788000     -44.07936779      20.73550134     -41.68821830
H        7.19211500       8.47954000       9.46468200      -9.70541482      29.39793747      10.85232047
N        9.15816500       9.69948500      11.49474500     -29.82525856       1.36442938     -50.67961821
H        8.33054500       9.01733700      11.41100500      44.09939476      30.28493092       4.40685840
C       10.11065800       9.59725000      12.55592500     -22.56648809      -7.85378488       5.65930264
H       10.21805700      10.63812800      12.86289500      17.23433613       4.39877651      10.45589305
C        9.45546500       8.75178000      13.64909500      87.51870196     -23.57518392      20.76986715
C       11.49119700       9.05167700      12.12464500      15.12913390      -7.53029594     -30.89652387
O       12.40659500       8.94338400      12.92131500       9.30693731       8.36679535      34.25619674
H        8.65642500       9.10463100      14.21741500     -39.98936217      28.15567262       9.82791117
H        9.22803500       7.78698000      13.22433500      -7.00343249     -15.24230407      -3.64481430
H       10.25884700       8.55521000      14.45436500     -19.35506223       2.29133458     -25.22106930
N       11.73842100       8.72170000      10.80987500      22.17270329       4.30568071      45.61030546
H       11.08101600       8.86583500      10.11425323     -50.77122087       7.10776236     -35.24723565
C       13.08425500       8.81276000      10.19393150     -19.59988901     -18.82725076      69.72337358
H       13.80698500       8.73128000      11.02822200      -1.05510508     -13.87016016      -0.93566611
C       13.17093500       7.72200000       9.19261500     -19.15965111      32.19033743     -27.82149473
C       13.27804500      10.19497600       9.70709700     -38.53059271      72.32711709      14.78903086
O       13.45826500      10.43948300       8.53872500      10.03527921      11.47408095     -33.96479835
H       12.22352500       7.67247000       8.59268500      20.48237936      10.39103647      -1.04196904
H       14.04200500       8.02154000       8.64446500      13.10735764     -14.53507936     -26.66147083
H       13.21512500       6.78196000       9.64141000      14.14129456     -38.83668544      22.91370129
N       12.94812500      11.22390000      10.68130500      11.38465874     -23.42338183     -76.69892236
H       13.29396500      10.92565000      11.53005500      12.10055785      -4.82807660      64.23728648
C       12.77233500      12.65268000      10.36122900      -4.43435105     -35.05917171       3.27727787
H       13.64643500      13.04186000       9.87914800      10.92874292       8.75928847     -22.04163919
H       11.81501500      12.73184000       9.82042200      13.43632141       7.14225852      -4.15371272
H       12.68930500      13.21804000      11.27260500      -5.59665021       2.80936957      18.21719835
42
Lattice="20.0 0.0 0.0 0.0 20.0 0.0 0.0 0.0 20.0" Properties=species:S:1:pos:R:3:dft_forces:R:3 dft_energy=9.559119127690792 energy=-620663.4835337764 pbc="T T T"
H       10.35556000      13.20577000       7.55581500      15.92997581      -6.10990953       8.39879111
H       10.36129000      11.88324000       6.50658500       7.79083619     -12.54316581     -33.55951878
H       11.29600000      11.66450000       7.96349500       5.25350165      -1.49024380      10.05294798
C       10.39991000      12.09753000       7.54122500       2.85694844      41.91491416       0.53440733
O        8.66809200      10.53662300       7.62148500     -14.81474597     -23.14158218      15.84145422
C        9.10712800      11.60061000       8.02491500     -42.57604128      24.87693717       5.51246582
N        8.31739600      12.59697000       8.67697500       4.90593294     -30.15019324      36.89264702
H        8.94053200      13.35148000       9.04072500     -19.23430787     -16.35504536      -1.34215086
C        7.08817000      12.31057000       9.64582800      -8.82232011      19.38231787     -55.27480126
H        7.03907000      13.24522000      10.19386600      -0.18616197       4.40157318       5.33814820
C        5.72221000      12.08154000       8.87146500      30.63593621      35.45828913     -14.18288904
C        7.09357000      11.20094000      10.67355800      67.09379646     -23.27572734      12.80505699
O        7.19722000      11.43626000      11.87603500     -20.78503551      10.47767386       5.51869907
H        5.52822000      11.04020000       8.98069500      -9.99108952     -22.92804013     -19.75252062
H        4.95586000      12.56959000       9.45207500     -11.81321226      10.59423322       6.28268662
H        5.70597000      12.51620000       7.81843500       2.35442547     -17.87662130      26.27384817
N        7.23384000       9.91679000      10.18999000      -8.96350435     -21.18699700      22.47239687
H        7.49514000       9.82963200       9.19396500      -3.98296204      -8.19853322       6.37555726
C        7.19863000       8.73981000      11.17135600      -3.63976608      13.10024747      10.06049661
H        6.85809000       9.16456000      12.15121500      -4.89753109      -0.21451732     -17.25673316
C        6.30994000       7.59184000      10.69083900     -38.91525280      29.25324555     -11.05706960
C        8.58233300       8.17129000      11.56939500     -20.77934737      28.08445244     -53.67939807
O        8.78466700       7.13414000      12.13269500     -15.85389702     -48.57571951      36.31222031
H        5.24258000       7.96642000      10.52593700      25.82128598      -7.03545195       4.41248729
H        6.66998000       7.28122000       9.71835900       3.31390708      -9.98582800      -9.97517459
H        6.23145000       6.73635000      11.36005800       9.25468942       0.21875380       5.68908239
N        9.59611900       8.87873000      11.04111800      32.57464201       2.92027634      18.14420062
H        9.37659900       9.84107600      10.87523200       9.44197125      20.29514493      -6.75864126
C       10.87490000       8.48345000      11.59592500      44.49874920      12.72056450      10.24295537
H       10.75108000       8.08129000      12.62080500     -10.14135107      -8.89751014      -9.59171139
C       11.58326000       7.45312000      10.69794900      48.31347281      24.19092446     -31.26423806
C       11.85682000       9.66982200      11.91970500     -33.74462015      -7.52406269     -10.52620076
O       11.63523000      10.81734900      11.54676500       8.64733888      -4.15964971       2.34216043
H       12.07068000       7.97176000       9.76256600     -29.07015873     -14.90291205      28.08006784
H       12.51521000       7.00603000      11.12647600     -16.78248495       1.51356516       7.53200238
H       10.94110000       6.64852000      10.36908700      -8.60268702      -5.57925400      -1.49770948
N       12.90749000       9.29415100      12.74352500      12.90590288      15.45181702     -35.17554145
H       13.16181000       8.31362000      12.68376500      -8.29004109      -4.01690124       2.03161199
C       14.10331000      10.12672550      12.64607500      44.12226580      15.92274714       5.81598704
H       14.25295000      10.92434300      11.84084500     -17.65028095     -36.45774174       2.18798829
H       14.18923000      10.76372600      13.49341500      -7.18470622      17.17911382      30.71189651
H       15.04414000       9.52231900      12.78675500     -18.99422120       2.64871532     -14.96808859
42
Lattice="20.0 0.0 0.0 0.0 20.0 0.0 0.0 0.0 20.0" Properties=species:S:1:pos:R:3:dft_forces:R:3 dft_energy=7.837648060056381 energy=-620665.205004844 pbc="T T T"
H       13.10355000       9.24774000      13.63437000     -12.48557345     -12.20116673     -22.98669902
H       12.85625000       9.92255400      11.96044000      -4.82428451     -32.76519451      19.80715041
H       13.19101000       8.14322000      12.13275000      -3.74289907       6.25021685       6.52112610
C       12.65616000       8.98041000      12.62643000      47.23675638      38.97971832     -13.14385650
O       10.58547800       9.41411300      13.63052000      -9.15156829      -1.23887567      -4.95594112
C       11.19306000       8.84160000      12.71079000     -10.58118606       3.34308247       9.21714774
N       10.59428100       8.17166000      11.68744100     -19.34261943     -29.84433751     -11.89234843
H       11.18886000       7.61892000      11.03799000     -11.14979804      16.49630069      14.38730637
C        9.10783000       7.81338000      11.64262500      33.90886503      30.42820081     -39.78932945
H        8.93073100       7.16988000      10.79846445      11.36460807     -16.98571725     -11.71830337
C        8.59509000       7.27647000      12.87434000      11.53488474     -14.07019288     105.83082105
C        8.32561000       9.03515000      11.15107400      -0.98877314      18.70163779       4.79194510
O        7.71328000       8.95715000      10.08155000       3.03999971      11.55543312       9.35952885
H        8.68412000       8.11328000      13.61957000      -7.67734606     -12.79960587      -4.99979901
H        7.53472000       6.97372000      12.91162000       7.74915876      -3.54760646     -10.59428062
H        9.27803100       6.50334000      13.42074000     -25.83728386      15.97808795     -30.14201655
N        8.41831000      10.17659200      11.93810000     -16.71991548     -40.69101725     -13.92372342
H        8.82367000      10.08729300      12.86929000       5.69514974      -1.04108620      -0.25750777
C        7.74864000      11.38670000      11.52162800       8.89727313       8.27533489      30.86760919
H        6.80899000      11.07559400      11.03404100       1.09052675      13.40645870       2.97338929
C        7.64743000      12.26854000      12.84439000     -30.41362496     -40.32188103     -28.58488976
C        8.62862000      12.06365000      10.50299700     -29.80262453      25.50606853     -44.63561993
O        8.08644000      12.72351000       9.56654000      32.55532606     -20.31540891      31.30666206
H        8.62201000      12.19007000      13.26095000      20.73751588      -0.44781971      21.53326218
H        7.41952000      13.30244000      12.72271000      -7.07122794      20.86312885     -12.84143735
H        6.85229000      11.80581000      13.46415000      11.99117977       4.29932896       2.01012744
N        9.96987600      11.90872000      10.67011500      21.93605320     -65.68740524      59.56104751
H       10.40872200      11.07888700      11.33899100     -50.03164490      59.29204616     -39.40099577
C       10.93970000      12.20957000       9.69315000      37.01079431      76.77642319     -11.13336170
H       10.56601100      13.13387000       9.07773000       8.81927459     -37.88759652      17.93622821
C       12.29086000      12.67406000      10.36598900     -29.10440604      97.60850431      14.23467477
C       11.23745000      11.01050700       8.85538000     -14.66069233     -42.52923267     -27.34594300
O       12.28426000      10.39047400       8.99368000      19.28609360      -8.09939378      -4.84285390
H       12.77162000      13.49666000       9.78021000      -2.60462043     -19.95053879     -11.15492921
H       12.16708000      13.35994000      11.28861900     -20.17367956     -24.41536877     -18.51096679
H       13.06860000      12.06971000      10.70301200      23.08481933     -47.76907095      -0.02755877
N       10.23664700      10.55149800       8.02635000     -34.48680318      66.61231959      54.35379750
H        9.30133700      10.98470300       8.21735000      22.59279571      -8.05508559      -9.91368349
C       10.28725900       9.46064500       7.15793000      56.44786047      23.52979735     -43.08607733
H       11.06549000       9.74103400       6.36563000      -6.36197684     -23.12949489      20.62873031
H       10.45162200       8.51723000       7.61628000       8.27159020     -25.80599912       9.49304595
H        9.42510900       9.47964000       6.57554000     -46.03786356      -8.30338450     -18.93153322
42
Lattice="20.0 0.0 0.0 0.0 20.0 0.0 0.0 0.0 20.0" Properties=species:S:1:pos:R:3:dft_forces:R:3 dft_energy=35.48719273041934 energy=-620637.5554601736 pbc="T T T"
H       11.15018500      13.46589000      10.07947170     -23.16599375     -29.42211204     -47.74880697
H        9.74361700      13.71102000       8.77260500      26.48632369     -31.59237231      14.30565794
H       11.36324500      14.28905000       8.58119500     -10.25807633     -54.43781599      -1.91282479
C       10.81513100      13.28330000       8.93916500     -11.71355141     110.59036748      25.40842222
O       12.46573500      11.92524000       8.00397500     -15.24313359     -19.88157016      -3.61829338
C       11.25792500      12.02866000       8.23619500      12.36790017     -13.58314638       6.36505791
N       10.25435800      11.02915000       8.06423500      30.79318943      40.10644294       5.01608130
H        9.34535100      11.47997000       8.10221500      -5.53148552     -11.88831934       3.95206836
C       10.35300200       9.63218700       7.55829500     -12.21455755      27.14176267       7.73383635
H        9.32272500       9.43070900       7.37102500     -26.98924957     -14.25138366       6.65371888
C       10.89690100       9.60232000       6.12064500     100.44937192       2.23181062      -2.86255362
C       10.70741600       8.63070900       8.72068500     -15.16468474     -45.81318225     -71.07916411
O       10.33961300       7.46365000       8.64248500     -12.37998745      -8.35562054      -4.96429557
H       10.18294810      10.05552200       5.45191500     -11.13827957      -2.88480845      -8.96275778
H       11.86129500      10.28718000       6.03642500     -39.21008776     -22.55120123       8.60828035
H       11.35670500       8.62811500       5.71596500     -29.54831752      20.36055848      16.73923143
N       11.51858500       9.05530800       9.63927100      35.31999637      84.01433718      51.15208887
H       11.52031500      10.11426700       9.67025200      12.27700852     -31.96174553       1.15918372
C       11.99924500       8.39428500      10.84797400      58.54773008     -10.34482038      -4.82695083
H       12.55100500       7.43674000      10.67909100      -9.29242072      13.43821745     -16.20478381
C       13.01993500       9.38571500      11.56447500       8.54581753     -40.35103272     -10.72161188
C       10.95165700       7.97865000      11.78733500     -20.59436450     -75.42134368      17.11204124
O       10.89631100       6.81765000      12.26052500      10.47556452      26.78672828      -0.76843614
H       12.52702500       9.77509800      12.43745500       1.92639336       9.24846803      14.78322423
H       14.05378500       8.94597500      11.79569500     -35.25612336       8.31075538      -4.75237702
H       13.13962500      10.13548300      10.82026200      13.32990589      27.64480706      -9.26650415
N       10.04293880       8.89652000      12.03048500     -20.96492276      59.29489023      15.46319329
H        9.99897800       9.67581100      11.37889500       0.44089441       5.07880483       1.68073705
C        8.83423500       8.74387700      12.85887500       7.78425929     -84.82619986     -99.74202871
H        9.05469500       7.74771000      13.22978500     -12.42596654      -8.82978579      19.93252637
C        8.56769500       9.79648900      13.71863500     -31.05662115      76.29482782      81.29991205
C        7.81735500       8.61811500      11.67959500     -12.14155982     -64.63664092       6.80424114
O        7.59511500       9.47308400      10.85085100       0.00164187      34.91305775     -13.30727186
H        9.30662600       9.81008800      14.54808500      -7.22311298      13.28392681      -6.61820359
H        8.49670500      10.71008000      13.14131500      18.30951203      18.65577721      -4.15991042
H        7.52669500       9.88286200      14.15282500      17.39004881     -22.99712726      -1.60694536
N        7.33765500       7.33528000      11.51874500     -11.79568570     -12.20104823     -35.70003484
H        7.52169500       6.61302000      12.19634500       9.55182334       3.08491228       8.63198091
C        6.84492500       6.72219000      10.20437350      36.66132955      65.84157738       2.80901406
H        7.53731500       6.94564000       9.32702000      -2.19592797     -14.97413223      28.27784901
H        6.64891500       5.71095000      10.40138700       0.87932988     -37.33110738       1.43301880
H        5.94621500       7.18157000       9.85572900     -26.03388000      12.21467605       3.50238579
42
Lattice="20.0 0.0 0.0 0.0 20.0 0.0 0.0 0.0 20.0" Properties=species:S:1:pos:R:3:dft_forces:R:3 dft_energy=15.29044248117134 energy=-620657.7522104229 pbc="T T T"
H        6.24730000       7.37951500      12.36776500      12.09842480      34.33725265       0.58870769
H        4.98518000       8.40961500      12.70781500     -16.07419372      11.01478780       3.56864070
H        6.50953000       9.02382200      13.21828500      18.78802633      12.32677970       6.00138467
C        6.02729000       8.50887500      12.41893500     -28.37383628     -44.53192998     -54.36564778
O        6.17851000      10.44031000      10.82435500      -6.03367668     -29.17799627      10.31425850
C        6.04154000       9.20067400      10.97116500      28.13659367      29.56988503      31.61678389
N        6.05980000       8.37500500       9.90198500     -10.11498420      -9.68644252      14.45070537
H        5.89891000       7.37493500      10.15811400       6.08887529      22.26003985     -21.12976015
C        6.11469000       8.86712100       8.47462100     -13.74940580     -46.48438210      31.04951098
H        6.20535000       7.85452500       8.01373500     -11.20529290      15.97299233     -11.41467550
C        4.84633000       9.67760680       8.02044500       4.14589154     -34.16151300       2.27467308
C        7.42616000       9.48247600       7.99284500     -15.28484658     -10.26101520       7.08439361
O        7.49516000       9.46217100       6.78171500      13.53633777       8.32490461     -29.20679245
H        5.14649000      10.28657600       7.19450500       5.46419963      20.52705491     -10.38495727
H        4.03324000       9.05157300       7.58935500      11.18950833      -3.94288439       9.93623457
H        4.42133000      10.22948100       8.85218700       3.20610509       9.09828943       3.37211566
N        8.40565000       9.96516100       8.83087500     -33.40902022       0.12697693      38.13396384
H        7.96177000      10.17711700       9.75155500      10.64366074       1.39298856      -9.63598403
C        9.18713600      11.01426500       8.22057500       5.99743853       8.41787006     -29.94755345
H        9.12918300      10.60936000       7.19042500      16.47011157      17.11085621      -6.38246597
C        8.51510800      12.40899500       8.31008500      45.88274339      -5.44994374     -21.78460662
C       10.62311000      11.15543500       8.66895500     -16.51063953      76.40716847      -8.83670635
O       11.17046000      12.27642500       8.49338800       5.94852057     -35.79388906      -5.44724188
H        7.52443000      12.24482500       7.95589500     -26.15498986      11.09763311      -4.92347136
H        8.59446000      12.62441500       9.36047050     -11.32302543      16.73769090      15.36768003
H        9.12256600      13.19335500       7.71675500     -24.75096869     -28.85732770      19.18015209
N       11.13206000      10.16702000       9.36058760     -15.60124905     -56.58413869      18.51096679
H       10.41642500       9.43583900       9.62595500      35.33101713       9.34829479      -6.09322434
C       12.53036000      10.15139700       9.67492100      -5.03892863      22.89391132      41.39776794
H       13.00781000      10.54663900       8.76767000       7.94596821      12.27831205      11.12616858
C       12.86446000      10.89413500      11.07014500       1.58844707      61.84838855     -63.26663005
C       13.08336000       8.78591400       9.93971600      19.15159292      29.16081337     -49.98696935
O       12.37846000       7.84308500      10.18794400     -13.00947432     -37.61658062      21.19612172
H       13.70451000      10.42541900      11.46198500      37.03354685     -20.23257546      26.56394302
H       13.13471000      11.99974500      10.96633500      -3.92823745     -26.50350659     -10.16079738
H       12.07797000      10.96208500      11.77215500     -30.46695122     -15.56095810      15.87570153
N       14.43891000       8.74256500       9.67473100      65.10792655      -2.00538732      11.60917414
H       15.09330000       9.55928600       9.44874030     -46.01807359     -23.26150701      11.54329844
C       15.21645000       7.53915500      10.15731000     -50.47614890       2.00116862     -49.13090512
H       15.50487000       7.64501500      11.19792500       7.54149445      -5.95362804       3.46312581
H       14.40886000       6.80664500       9.95703400       9.96146382     -11.36350599      24.23062290
H       15.96676000       7.21329500       9.41040320       6.26620288      15.17511298      13.64239778
42
Lattice="20.0 0.0 0.0 0.0 20.0 0.0 0.0 0.0 20.0" Properties=species:S:1:pos:R:3:dft_forces:R:3 dft_energy=-10.674503326648846 energy=-620683.7171562307 pbc="T T T"
H        9.83069200      10.96745000      13.67756500      14.51789646      -3.86812098      -3.39320916
H        8.79896000       9.53874150      13.76714500      12.05600080      14.24059991     -22.90742064
H        8.92300000      10.56661600      12.25252500       0.68888284      -8.37172507       0.68307739
C        9.50741100      10.10565600      13.07231500     -45.21900921       9.96404718      42.23143514
O       10.02725600       8.00652000      12.16110500      19.75963078      23.17748852      -0.18289604
C       10.45850800       9.12193800      12.54215500      20.67447239     -34.49201731     -31.63278176
N       11.77365000       9.56022460      12.39279500     -36.80673249      23.26873568      27.49857460
H       11.86642000      10.46922600      12.87606500      10.13484527     -12.47490820     -17.14723657
C       12.84205000       9.08246900      11.54623500      15.21587795     -15.21386340      -2.04079596
H       13.69992000       9.65893500      11.80482500      19.12729985      19.30220998       4.91130112
C       13.19984000       7.61595000      11.88129500      -9.61489053     -12.67968103     -15.51865260
C       12.55694000       9.41624800      10.06577200     -16.73093624      26.93201272       7.38456120
O       12.67653000      10.56880000       9.58501200       4.93845011     -38.52857816      17.15008064
H       12.21755000       7.06691000      11.84094500      22.56091846      -3.69880418       0.18867186
H       14.03198000       7.13817000      11.25148500     -28.20259973      17.01593547      12.33045328
H       13.53129000       7.59553000      12.91959500       0.79730342      -2.21871606       5.32183037
N       11.96984000       8.37448000       9.42956900      -9.16824163       5.65343675      11.74894820
H       11.83734000       7.49777000       9.97166000       0.44098684      15.60255258     -18.37682162
C       11.50923000       8.58209800       8.06869500     -11.12415404     -22.43388346       6.61013355
H       11.96639000       9.50912260       7.81838500      18.68184782      22.83525244     -15.46591885
C       12.09001000       7.41852000       7.30571500     -36.15034548      -9.38098971     -20.15436361
C       10.00695700       8.94293100       7.88173500      15.35902933     -41.12698905       7.52326872
O        9.54397800       9.05231300       6.72199500       5.11750784      10.28957437      38.67564014
H       11.80884000       6.45005000       7.72990500     -10.82019436      -2.40334342      -0.66783793
H       11.92799000       7.41412000       6.23285500     -12.78740008       1.51815121      -7.27195984
H       13.12089000       7.44373000       7.40658500      55.13710101       5.69904848       7.63340522
N        9.33670800       8.99721700       9.08832000       1.75377033       4.95518271     -52.21091138
H        9.83896100       8.78448700       9.94049200      -2.46521374       1.45116158       7.29314814
C        7.97151000       9.43099400       8.98978300     -29.72678274      28.64556320      -2.10593695
H        7.62306000       9.01378400       8.00792500       0.91403935      12.98790681      13.10486908
C        7.05167000       9.05583200      10.13853200     -22.99250565       6.58925336     -11.47455496
C        7.98446000      11.06915000       8.99700800      26.29778573     -71.93345079     -41.27476204
O        7.73088000      11.69105000       9.98504100     -20.53262454      30.57952888      52.65505987
H        7.37445000       8.13725000      10.59459800      -0.53851346     -15.07545213       9.26104117
H        7.07527000       9.89052600      10.85656500       0.08066272      -7.56054970       3.44670132
H        5.96802000       8.97833900       9.78905840      28.39125619      -1.55656982       6.73454964
N        8.50372000      11.63584000       7.89822500      -3.94681869     -10.87565367     -40.48067478
H        8.66052000      11.02139000       7.02065500      -5.13653939      32.59869808      38.67943223
C        8.48385000      13.09595000       7.97148500      33.00776974      17.80670465     -13.51678481
H        9.27511400      13.45733000       8.73102500     -30.60145190      -9.22558514     -18.25298619
H        8.77989000      13.54995000       6.99704500      -3.75324436      -9.51034736       8.18703845
H        7.46105000      13.44076000       8.21431500      10.66502679       1.51598261       4.82320614
42
Lattice="20.0 0.0 0.0 0.0 20.0 0.0 0.0 0.0 20.0" Properties=species:S:1:pos:R:3:dft_forces:R:3 dft_energy=6.277492889086716 energy=-620666.765160015 pbc="T T T"
H        6.59124500       8.17934000      14.05790500     -39.82476178      49.00067055      36.87593812
H        7.94650500       7.30583000      13.87724500      40.05287967     -19.86912737      13.57082208
H        6.40917500       6.63923000      13.25672500      16.13569667      19.35352169       0.35714966
C        7.05475500       7.56441000      13.39242500      -2.11531052     -40.57820258     -65.11112612
O        6.56504500       9.18110000      11.64202500      21.26698639     -24.29034831      11.82666233
C        7.29799500       8.23660000      12.02490500     -35.56873374      11.65330459       2.16740435
N        8.23928500       7.65348000      11.21690500     -19.63354380      22.00336279      -4.61521003
H        8.72702300       6.89730000      11.66010500       9.47858861     -12.98707729      -5.96301346
C        8.13801500       7.76622000       9.72712360     -24.17457108      46.28008328      34.40183668
H        8.86499000       7.12194000       9.32205100      31.92015105     -14.84152760     -12.11086760
C        6.80250500       7.26607000       9.18828400     -41.06287903     -10.27062577     -30.03856360
C        8.38930500       9.22578000       9.15791400      -3.55763179       8.22385727     -49.41412681
O        8.52720500       9.32774600       7.90558500       6.47399754      -8.76477515      49.88150185
H        5.88239500       7.99965000       9.22428700      42.24861804     -29.23404810       3.88684442
H        6.97295500       6.97058000       8.10712500      -5.43865043      15.68313448      18.15533988
H        6.52610500       6.26841000       9.63142500       2.85847713      20.38959166       2.73031635
N        8.38465500      10.36480000       9.95610900      13.58018381     -33.23339907     -21.68624930
H        7.79949500      10.35824800      10.74099500     -23.65481780     -19.06887797      42.61005158
C        8.44091500      11.66172000       9.38718300      14.47677599      48.96879329     -25.21538116
H        8.05021500      11.60876000       8.33437500       8.57622535       5.94074679      14.48767824
C        7.64291500      12.73353000      10.21156100      20.60052665     -19.23869248      24.31487839
C        9.95032300      12.21476000       9.29633400     -54.80884825      50.04562823     -42.70414280
O       10.19218900      13.22779000       8.56184500      -2.05073834     -59.40509783      44.71300226
H        6.61554500      12.57382000      10.26026200     -55.15084733     -23.12807286     -18.61667128
H        7.75532500      12.69057000      11.33840500      26.05449949       7.30748698     -21.17099912
H        7.67798500      13.73159000       9.79458310      19.02917953       8.31749818      -0.09478541
N       10.76505500      11.57936000      10.14147200      47.25370228       6.17187465       7.42763696
H       10.49751400      10.71107700      10.56232000     -15.24159305     -11.18363059       4.13517889
C       12.18590500      11.86359000      10.07081500      19.14057216       5.94097194     -35.86333170
H       12.18927500      12.91142000       9.69611920       3.48246547      -7.26616505      -0.13848711
C       13.08312500      11.84751000      11.31068500       4.55208358     -14.72041774       7.65374030
C       12.90298500      11.04282800       8.86136900     -21.44308155      -9.84745228      -6.61353458
O       14.11760500      11.04701100       8.67938500      -8.34605736       5.73382905       9.53488929
H       12.57558500      12.15418000      12.25972500       9.11186985      21.75367739     -19.40732196
H       13.41991500      10.85892400      11.65319500      -0.57779239     -10.88034638     -14.48009406
H       14.03036500      12.35153000      10.95582500     -21.04301610      -0.65217305      22.56328851
N       12.04255500      10.34749100       8.00592500     -23.45573310      -1.15254164      31.52103362
H       11.00889500      10.26745890       8.16019500      30.68167830      11.10814431       2.65480636
C       12.47832500       9.59497300       6.86299500      38.31088852      22.35733065     -17.51969087
H       12.14450500      10.16762230       5.94209500      13.52602803     -22.62218441      12.00741465
H       13.59049500       9.43087700       6.91990500     -13.07026626      22.84840625      -6.55948546
H       12.20481500       8.55873000       6.86500500     -28.59330346     -15.84737936      -0.15453358
42
Lattice="20.0 0.0 0.0 0.0 20.0 0.0 0.0 0.0 20.0" Properties=species:S:1:pos:R:3:dft_forces:R:3 dft_energy=30.18681327207014 energy=-620642.855839632 pbc="T T T"
H        5.18263500      13.72655500       7.20702000      -2.78556235      -4.89328869       0.04611477
H        6.44145500      14.31928500       6.12708000       6.52099575     -39.25677787      17.17828430
H        6.59822500      14.45761500       7.81301000       9.89106131      -7.96021224      12.67233386
C        6.27755500      13.70392500       7.08535000     -32.63922604      42.39496900     -15.90189065
O        8.00069500      12.11392500       6.80841000     -28.00718862     -11.10972040      16.99472347
C        6.86958500      12.33217500       7.30614000      58.57415620      24.67868199     -33.62611735
N        6.14443500      11.51188500       8.09613000     -72.25127530      72.87234847     -36.88399631
H        5.30677500      11.96279500       8.49182000      14.32201133      -0.77233607      -9.26808024
C        6.38813500      10.29354200       8.65882000      20.84724948     -40.55106544      75.48379466
H        5.39256500       9.96378800       9.19313000      31.34541247      -8.48221708     -38.15256878
C        7.21558500       9.42910600       7.71221000      -1.57843359     -18.45692951     -41.20176431
C        7.10104500      10.75221600      10.01048500      60.67236677     -67.90968824      29.95063453
O        6.76294500      11.75760500      10.60947100      -3.08956944       7.10776236      -2.62360458
H        8.18725500       9.90411000       7.49950000      -1.22653952       1.41478122      14.30470992
H        7.41402500       8.34127500       7.90687000     -12.47099760      19.55426543       7.53338886
H        6.78789500       9.52108200       6.65202000      -0.35952920      -9.57965965      29.57367712
N        8.14455500       9.89985100      10.54346060     -23.56487417      63.86838727      31.61358431
H        8.53099300       9.01578500      10.28524000      -1.02743468     -18.07013637     -26.45065435
C        8.99619200      10.42108000      11.71596000     -19.16059913       0.21651883     -29.63458756
H        8.76126200      11.50579500      11.63025000      20.65337890      -5.54641687       8.04082970
C        8.56261200       9.92463100      13.07736000     -27.69564476       4.84514101      36.18921440
C       10.38614000       9.80592400      11.48875100      -2.93534989     -16.29638647     -44.93057340
O       10.33508100       8.75087500      10.85347800      14.03535306     -17.86951113     -10.75466231
H        7.45010500       9.75738500      12.98839000      16.78912111      15.27655138      15.99610038
H        8.93258700       8.96346500      13.48546000       7.51868266       1.22458423     -18.56310802
H        8.90090900      10.67518200      13.87292000     -21.44580712     -14.45378644     -18.24457249
N       11.56512500      10.33749500      11.89544000     -19.96215207     -22.56317001     -40.09933277
H       11.33111500      10.90907100      12.63938000      18.33131654      45.95574112      48.58105213
C       12.88649500       9.70857800      11.71179000      14.30091783       9.96202078      35.21855797
H       13.06831500       9.38392000      10.66021300      -3.29433042      25.98991546       5.07007117
C       13.94591500      10.66252300      12.38391000     -35.42297530     -28.79179565     -20.43924434
C       12.94803500       8.40931500      12.47650000     -13.49284724     -44.20972087      15.83221101
O       13.15757500       8.34425500      13.69582000      -3.56944652       0.06687634     -17.01996456
H       14.81736500      10.15332620      12.65673000      37.28263973     -29.84030842      -1.55179416
H       14.18946500      11.39280500      11.68277000      10.33487799      41.77330331     -22.96039139
H       13.66702500      11.03413100      13.35046000     -21.92230687      12.04533555       9.60811217
N       12.65780500       7.28686500      11.69743000      22.18301303      74.24034478      17.94191634
H       12.30859500       7.51539500      10.79734100     -12.73312580       5.18048023     -20.20129072
C       12.21937500       6.10453500      12.27860000      13.05877149     -37.27754411      18.70779994
H       13.13400500       5.55598500      12.54914000      -7.95681121     -10.58224074      13.22467541
H       11.54313500       6.23259500      13.14242000       5.25788626       0.83412461      -2.13826451
H       11.74317500       5.54238500      11.50067000     -13.32729883     -15.02923604      -9.11554344
42
Lattice="20.0 0.0 0.0 0.0 20.0 0.0 0.0 0.0 20.0" Properties=species:S:1:pos:R:3:dft_forces:R:3 dft_energy=23.52907576970756 energy=-620649.5135771343 pbc="T T T"
H        8.22050000       6.35345000      11.78198000      10.98798247      -6.53981399      -7.12871365
H        7.91795000       7.30668000      10.15866400       8.89960764     -16.33004127      42.27077807
H        7.07092000       7.62209000      11.67029000      21.24186380      11.53904419       5.04153570
C        8.09837000       7.33246000      11.31314000     -58.04800377      -7.53769051     -51.89557543
O        9.89086990       8.55007000      10.43955200      10.55833872       8.35159144      -1.37240462
C        9.23230500       8.26742000      11.43839000     -14.45840805      -4.90890736      39.58183104
N        9.49005400       8.76587000      12.70805000     -25.38294412     -20.66262211     -55.86079760
H        8.93979000       8.38217000      13.50549000      18.21873888      19.63105525     -16.21130146
C       10.54931800       9.70361900      12.75214000      75.20993469      -7.61411297      54.15163173
H       10.43753400      10.26835800      13.70448000      -5.33846816       4.33975027     -17.22248585
C       11.94503000       8.91159000      13.04308000     -74.88535552     -38.88183501      32.09672022
C       10.79818000      10.79688900      11.67585000       6.83949572      51.71959878      33.09451379
O       10.43205000      11.92311000      12.04667000     -19.33669429       1.87900409     -11.66055696
H       12.78196000       9.54406900      13.10118000      27.92696222      21.05261483       1.95989410
H       11.75116000       8.34386000      14.06255000      13.99683965      24.48149333     -39.13495699
H       12.02986000       8.13035000      12.28822000       8.75979803      -2.20731609      -5.48963033
N       11.73511000      10.72116000      10.68993000       5.21805747     -87.43729054      25.19677623
H       11.98025000       9.73001500      10.45269400      -2.67829362      25.84866012       0.91543413
C       12.06332000      11.72658000       9.74486000      -5.83787451     -10.31596494       1.73816351
H       11.76370000      12.70181000      10.21970600      17.02387516     -13.53017562     -10.78164540
C       13.50453000      11.57547000       9.21447400     -14.95813436      15.07829620      10.29993152
C       11.16640000      11.59421000       8.52394000       1.32244384     110.70033808      22.68854597
O       11.12161000      12.69904000       7.88345000      -2.11568973     -54.60988205     -12.90412534
H       14.19335000      11.91724000       9.98143200       9.21061823      14.60618104      -0.71412275
H       13.81891000      10.52547280       9.06893500     -12.26977985       3.77002436     -11.65708483
H       13.42747000      12.21067000       8.30175000      23.48761035     -10.75434235       8.05606916
N       10.36578200      10.56372990       8.44759000     -48.94130064     -10.73360436     -68.22751274
H       10.18659900       9.95677400       9.25326600       1.72598142      -6.85267323      -7.59346978
C        9.54656000      10.45145230       7.10866000       1.54718440      20.10648848      40.97945306
H       10.11767800      11.09884500       6.43594000       2.80722467       1.30586530      -3.31624159
C        9.63810800       9.02067000       6.70157000      -4.83749758      15.16302570     -50.76659926
C        8.14339000      11.12779500       7.09801000     -43.57170180       3.38357488      10.05371825
O        7.25146000      11.02059000       6.22065000      47.27313674     -16.67156633      10.30039368
H        9.46326000       8.37470000       7.50498000       1.67464601     -27.45437306      33.83752635
H        8.88985000       8.75378000       5.93745000       2.10961054       6.27443882      -1.59159925
H       10.63080300       8.94817000       6.24637000       1.63909517     -17.67647007       4.08361832
N        7.81368000      11.91329000       8.18617000      39.78056024      12.31777348       6.48486424
H        8.59738000      12.38813000       8.70790700     -16.95858011     -24.68982125     -15.36590249
C        6.69570000      12.83861000       8.00116000     100.16496520      41.52456594     -37.82301250
H        6.76439000      13.26919000       6.97394000      -1.76727965      -4.07520462       5.67825124
H        5.80665000      12.38389000       8.03588000     -83.92617109     -36.22275069      19.47546107
H        6.97907000      13.64655000       8.65170300     -22.31253659      12.63299093      18.73244852
42
Lattice="20.0 0.0 0.0 0.0 20.0 0.0 0.0 0.0 20.0" Properties=species:S:1:pos:R:3:dft_forces:R:3 dft_energy=31.55108485429082 energy=-620641.4915680498 pbc="T T T"
H        5.76571000      11.70911400      12.54352000      16.11969880       3.07833537       4.77206033
H        7.76371000      11.50619900      12.71457000     -75.40593832     -21.44059299     -23.52529424
H        6.47924000      10.23951600      11.90739000       6.98121322     -12.85127309       1.69483889
C        6.68107000      11.28687800      12.07887000      53.28987937      27.86214119      39.72984104
O        7.37943000      13.21191000      10.81890000       0.49070587      11.84686706      10.55721294
C        7.02187000      12.03356000      10.83744000      17.00218914     -18.78719681     -28.18458731
N        7.09853000      11.26646100       9.69600180     -19.89626451     -35.86202817      14.97508026
H        6.99118000      10.20657600       9.82957720       3.56205195      48.58958434     -13.59961826
C        7.16205000      11.86453200       8.33417000      27.78795844     -68.48561184       5.33417836
H        6.55889000      11.17003100       7.68995000      11.29816355      12.71866845       7.02657609
C        6.66139000      13.22376000       8.30499000     -52.47232856      29.53646724     -47.57472636
C        8.65279000      11.77642700       7.85010000     -19.38658397      19.32555503      49.75138578
O        8.99855600      11.16541700       6.86983000      11.09836783     -10.38560904     -22.65915728
H        5.82675000      13.34464000       8.95260300     -13.76635170       5.91731879      28.18612784
H        7.36187000      14.02739000       8.44338000       6.20491323       7.90145856      -0.41182804
H        6.07789000      13.31869000       7.35584000      20.94525129       8.40489400      -3.08330064
N        9.47030700      12.46122000       8.75837000      -3.17105196     -34.01693958     -12.47194563
H        8.89727100      12.97210000       9.48376300      31.26566009      -5.46711480      -5.70799544
C       10.93629000      12.46129000       8.37951000     -41.66285870      64.14177323     -31.30334398
H       10.67627800      12.47587000       7.26636000      39.36485242     -28.09251063      20.21231148
C       11.42928000      13.90511000       8.59114000      62.53795634     -30.57573679      62.37063039
C       11.97162000      11.45031200       8.91497400     -57.52066631      -6.39122333       5.57584112
O       13.03910000      11.26392800       8.36342000       9.04338708      -5.69997280       1.90518136
H       11.24095000      14.49893000       7.77459000     -28.24075763      39.40810594     -41.99442954
H       11.01757000      14.29431000       9.57453400      16.02572608      -0.35868427     -23.47516756
H       12.60072000      13.90904000       8.56309000     -39.69500122      -1.66325789      13.90025987
N       11.46915000      10.77535400      10.01149800       9.17652498      20.38579958     -16.39770636
H       10.61782100      11.09895600      10.39940900     -28.22985538       4.41144446       7.07414311
C       12.07622000       9.60474000      10.50540500      48.48222080     -16.55780365     -70.49695985
H       12.51239000       9.22047000       9.53715400     -13.63493210     -13.22609744       6.53110403
C       13.38706000       9.87732000      11.20438000       6.81232303     -40.95954459      37.24483734
C       11.16940000       8.59400000      11.07681000     -11.35728459     -21.87253570      49.87818378
O        9.96776900       8.76818000      11.22516000     -19.13476552       4.79932782     -10.33180877
H       13.55401000      10.89829450      10.99957000      19.60190356      29.80143950       8.73659519
H       13.30015000       9.55235000      12.25436000       1.87889744      21.25039600       5.93518901
H       14.23429000       9.26001000      10.85845000      -4.25233075       5.79158732      -9.80631996
N       11.82913000       7.53401000      11.68582000     -18.89420484     -23.21410589      -9.40855346
H       12.78754000       7.50276000      11.36423000       6.61756368     -19.21902101       7.19079727
C       11.07910000       6.33770000      12.32375000      44.85117652       7.65797085      -3.72137896
H       10.75801800       5.50107000      11.61169000       8.60079098      28.83303462      11.84908306
H       11.77641000       5.84136000      13.13017000     -28.80530497      25.39906050     -30.38044418
H       10.22231100       6.86123000      12.76038000      -3.51289699     -11.93453543       4.10308833
42
Lattice="20.0 0.0 0.0 0.0 20.0 0.0 0.0 0.0 20.0" Properties=species:S:1:pos:R:3:dft_forces:R:3 dft_energy=-19.493873842875473 energy=-620692.5365267469 pbc="T T T"
H       11.01540100      11.98524500       7.77244500      -3.67984373       2.37977322      10.43428999
H        9.70244000      13.22910500       8.06103500       8.53922877     -10.49023516     -10.76820718
H        9.63447000      11.94136500       6.72022500      -3.69994180       5.79629188      25.90731901
C        9.92806600      12.16939500       7.79222500     -13.18391044       2.57345419      -5.24025304
O        9.13613000      10.04415300       8.63932500      14.13264386     -52.44744297      -7.22159615
C        9.18958000      11.24055500       8.78054500     -26.16150752      40.41075813     -11.68250368
N        8.38576000      11.82741500       9.75545200      24.15892871      34.53230826     -23.85259897
H        8.57259000      12.86052500       9.79491700     -11.20613427     -29.56384139      15.10140424
C        8.02846000      11.06379900      10.99121800      18.03103045      78.42432312      -3.89550697
H        7.69898000      11.88207500      11.64434500      -1.12253317       0.14342394       6.97979118
C        6.91975000      10.11304300      10.85158800      -9.80951953     -37.46833362     -18.38606484
C        9.34625000      10.64293900      11.56565500      34.61454920     -49.19833322      26.12536416
O       10.25507400      11.34993500      12.02520500     -15.21244136      16.72240403     -11.58490477
H        7.11426000       9.40984800      10.00332460     -13.73506696      15.23637893       3.72544361
H        6.86139000       9.46353300      11.71363500       0.04378809      -4.89839617      17.13882287
H        5.95706000      10.62803300      10.83909400      -2.24446672      -0.92911764     -13.66526882
N        9.50179000       9.29043600      11.53990500       2.74102900      -2.88599348      12.27155739
H        8.69234000       8.75363500      11.24188500       7.33068982      -4.48164552      -0.96901280
C       10.67751600       8.55008500      12.03885500     -13.25880421       3.02760432      -6.91032484
H       11.16131900       9.08704500      12.86584500      -9.02190253       1.96173089       4.46231771
C       10.20200700       7.15825500      12.40246500     -14.85112633     -27.97566687      11.77282651
C       11.82195000       8.46462500      11.01437900     -14.05312848     -11.58851911      18.64961506
O       12.82596000       7.87143500      11.38164500      20.46934405       0.75221311      -6.65341077
H        9.52842000       7.09072500      13.27977500      -3.65500554      15.40251985      -5.99869466
H        9.62158000       6.75586500      11.53260500      11.17652042      -1.99779129      10.69667889
H       10.96898200       6.42705500      12.73317500       4.73872549      12.52361285     -18.03103045
N       11.58285700       9.05494500       9.84414400      -0.56263944       0.42264023     -18.19219426
H       10.65258090       9.37385400       9.59614000      -8.07686640      -0.69539457       5.85330357
C       12.56415000       9.34610100       8.84284500      17.59719170      10.77735559      20.43284519
H       13.50159000       8.82456500       9.12756600      -6.61311982      -2.63520600      -0.73073092
C       12.18396000       8.91358500       7.43795500      -3.49404319       3.75339842     -13.85996892
C       13.03260000      10.84746700       8.98576500     -18.28486344     -17.02245312      37.51549773
O       13.78853000      11.30874500       8.16256500      11.75639017      19.36951957     -25.51270469
H       11.17574100       9.22259500       7.07118500       8.60740343      -0.56793652      14.23716333
H       12.90819000       9.43397000       6.79171500       0.72866779     -10.36306981      -4.94232515
H       12.23906000       7.80363500       7.33901500       3.65491074      14.65061959      -0.02310496
N       12.68935000      11.55556500      10.14277310      14.58425802      39.85071390     -41.71049683
H       12.11437000      11.32267500      10.91521800     -23.66157246     -26.75366600      11.05013719
C       12.96983000      13.02162500      10.15933100       2.02353010      -8.01906073     -41.32121513
H       14.04294000      13.15419500      10.11417120      12.88599441       6.06029241      11.96925675
H       12.65689000      13.57294500       9.20918400      -3.35136582     -20.37169774      17.59932475
H       12.48681000      13.52213500      10.99272100       1.12476932      -4.41751181       9.22940093
42
Lattice="20.0 0.0 0.0 0.0 20.0 0.0 0.0 0.0 20.0" Properties=species:S:1:pos:R:3:dft_forces:R:3 dft_energy=26.706998931942508 energy=-620646.3356539721 pbc="T T T"
H       12.08161000      13.78290500       8.79155500      38.88467908      10.51827292       2.44421504
H       10.42998700      13.72037500       8.93956500      15.07675566     -37.81969442     -12.69923399
H       11.06611800      13.55884500       7.32141500      14.06237170     -13.59914425      17.09947994
C       11.31032000      13.20279500       8.37254500     -74.91012261      31.99421530     -15.58584369
O       12.78253000      11.43064500       8.77497500     -14.97164368     -16.45707627     -12.74888667
C       11.60982000      11.72478500       8.50182500      14.80194767      -6.36226125      32.63128635
N       10.54560500      10.81588500       8.51890500     -13.84112697       3.05476516     -29.18297339
H        9.67974600      11.29054500       8.18030500      16.28832828     -12.83183863      10.58184968
C       10.52479400       9.35406600       8.05247500      13.98392284       6.35362239       9.40229651
H        9.41195900       9.12638100       8.02971500      26.26531597       7.21532735     -25.50926811
C       11.48503000       8.98405290       6.88104500     -95.34024223     -22.21192771     -68.02368793
C       10.86466000       8.22947200       9.09579500     -25.43378182      69.25659105       7.17111395
O       10.09376700       7.30060500       9.22405500      -5.52643730     -35.63675435     -14.84129060
H       11.12167000       9.31004800       5.80050500      11.11473306       3.59551714      44.84892497
H       12.49809000       9.29666700       6.95643500      22.80965583      -2.44946471      13.50031292
H       11.21756000       7.87666500       6.74396500      30.43756253      21.18249390       7.43033883
N       11.70904000       8.57489300      10.07474000      40.00915214     -11.79589901      10.02179360
H       12.58799000       9.10897900       9.95860200     -23.39008255       6.72230830     -13.60720244
C       11.87654000       7.59074500      11.12474100       6.26873884      28.70647364      25.72766877
H       11.96005000       6.61362500      10.76282500       7.58031597     -39.22170104     -23.01016257
C       13.09105000       7.99169600      11.89203500      68.48229376     -41.72530968      55.01054002
C       10.70226100       7.50882500      12.06917500     -21.93024656      40.71862840     -11.29172885
O       10.45173300       6.59954500      12.82429500       9.41294991     -37.08545107      15.94218160
H       13.86509000       7.11875500      11.88661500     -32.50401434      18.51440337      16.03283624
H       13.77694000       8.66169500      11.42029500       0.54408427      30.31017202     -19.22435364
H       12.98316000       8.38263800      12.96627500      -4.24558794     -16.61219643     -31.95084328
N        9.93132300       8.62742900      12.01165500      -6.07709611      23.10532032     -36.49258157
H       10.12143907       9.25997000      11.16725800     -10.17956822     -21.43052025      39.30311246
C        8.59685000       8.62745300      12.61436500      13.58966403      -3.18699059     -15.36613950
H        8.58811000       7.71759500      13.25306500      -0.89022976       8.94904700      -0.43021967
C        8.40861000       9.87254000      13.40230500      38.63262362      21.46678211       7.76796515
C        7.48530000       8.40844200      11.56397500     -34.45160785     -13.16767556     -16.66196761
O        6.39593000       9.03935100      11.54651500      42.68056075     -18.08968933      -0.81273604
H        9.15459700       9.91908100      14.19949500       6.91166392      -7.87065968       5.70537653
H        8.62879000      10.83630500      12.87393500     -20.35001173     -16.00759515      -1.98299029
H        7.49262000       9.77927700      13.90363500     -41.19145457      15.25237681      11.75367646
N        7.75249000       7.33554500      10.73511200     -15.62743817      -4.56676608     -29.33619751
H        8.68997000       6.88873500      10.67900900     -18.03280799      18.57519530      10.66602221
C        6.93748000       6.91790500       9.47417700     -13.56774101      57.23543008      58.36511726
H        7.69523000       6.40272500       8.96603500      18.42386723     -16.86045980     -34.82477317
H        6.13491000       6.21709500       9.78649900       2.63306110      11.85549406      -6.04071575
H        6.53496000       7.87627500       8.94375500      13.56702999     -39.59320731      18.21802787
42
Lattice="20.0 0.0 0.0 0.0 20.0 0.0 0.0 0.0 20.0" Properties=species:S:1:pos:R:3:dft_forces:R:3 dft_energy=10.056893894216046 energy=-620662.9857590098 pbc="T T T"
H        9.61983300       7.17925500       7.03378000       6.31599775      17.65016245       2.08111061
H       10.43338400       8.80175800       7.27194000      -7.41694801      -2.03035586     -14.24131092
H        8.81672000       8.58738800       6.45985000     -20.86727645      23.02817500     -10.27876692
C        9.45457000       8.27044500       7.24590000      49.18043929     -42.33476958      13.72096513
O        8.97200000       7.26879500       9.39851700       8.87127362      -7.83907868     -26.31212457
C        9.01254000       8.28757500       8.66125000     -40.78096087     -13.13769435      35.13726505
N        8.57033000       9.44226130       9.18543000      -1.12487716      69.87043555     -38.88586410
H        8.70346000      10.33135500       8.64516000       5.18426047     -32.04339396       3.72876168
C        7.63809000       9.75039700      10.29277670      20.81679426     -23.55693449     -24.05594978
H        7.40366000      10.79753500      10.13382400       9.83386001      13.12631808      14.24605104
C        6.33995000       9.05043500      10.08486100      -8.72562183     -41.21657716      31.85651505
C        8.36531000       9.52681200      11.61628000       7.19643800      59.29015012      58.17610530
O        8.15273000      10.34435900      12.56106000       6.64544739     -37.98121373     -32.79541273
H        5.72489000       9.23434800      10.96811900     -16.29389791      17.37286590      -6.28224816
H        5.88045000       9.15644500       9.10155000      -3.96243735      11.53987371       2.38432373
H        6.48120000       7.98357500      10.25551550       6.67403026     -13.33500151     -10.47395288
N        9.37874000       8.61902900      11.59477000       4.27688453      11.48377448      49.15294664
H        9.31240000       7.88890500      10.95851600     -13.98664841     -36.46982903     -52.30512111
C       10.50332840       8.37144500      12.49734000      -9.91245106      20.74450755      43.91263435
H       10.29677100       8.82704400      13.49893000       2.16676444      -2.75874517     -14.36490934
C       10.91145000       6.88831500      12.68447000     -32.08700299      14.59954489      34.78246767
C       11.71568000       9.06973200      11.92513000      11.58808065      -5.25915424     -41.89417617
O       12.41302000       9.93455800      12.42281000       5.21187162      14.87482689      22.45284391
H       10.40514700       6.38419500      13.54015000     -14.63817680       4.12824647     -19.28988569
H       10.82643400       6.38080500      11.75565000      -1.89194459     -21.88557100     -18.53928895
H       11.90115000       6.83192500      13.07122000      32.79896781       5.37269177      -3.78217090
N       12.04148000       8.60235800      10.66987300     -25.37808551     -25.77376636      -3.17583947
H       11.44667700       7.93261500      10.12891000       5.99012691      16.61930660      25.46968817
C       13.09594000       9.11017600       9.86270200      27.66412301       7.04416190       3.58533775
H       14.10854000       9.09837100      10.40614400     -29.56443390       7.79691539      -7.86985386
C       13.21724000       8.09921500       8.69449000      43.15540146      10.07263130       5.38043000
C       12.72940000      10.59433500       9.36791000      11.46917494      19.46076672     -24.81033860
O       11.85582000      10.80425500       8.49226000      28.19193448     -12.98660328      28.18269126
H       12.21234000       7.94866500       8.32504000      -3.73384545       0.73102362     -22.07683452
H       13.99119000       8.53334800       7.99635000     -25.83598033     -11.60580866      -0.50823362
H       13.63092000       7.08459500       8.99555000     -10.51779891      25.10138147       3.83021193
N       13.57892000      11.61398500       9.85730300     -13.00580074     -33.35533846       0.48331722
H       13.86079000      11.37228500      10.88207200      -5.85451230      27.73249913     -51.05396855
C       13.55887000      12.97943500       9.15143000     -35.61269828     -22.83074933      56.88075120
H       12.62878000      13.48988500       9.48082800      -2.92366552      -5.90507745     -14.54455959
H       14.27511000      13.61919500       9.63310900      26.10486318       1.83456554      -3.33972884
H       13.60058000      12.91896500       8.05960000       4.77829358      -7.16936011       5.43603152
42
Lattice="20.0 0.0 0.0 0.0 20.0 0.0 0.0 0.0 20.0" Properties=species:S:1:pos:R:3:dft_forces:R:3 dft_energy=10.847341787302867 energy=-620662.1953111168 pbc="T T T"
H        5.88209000      11.23353000       8.93934500     -20.72400656      -2.12928200     -20.25651302
H        6.93207000      12.48071000       9.61063000     -12.70693668     -25.86323597      12.89120853
H        5.40109000      12.14559000      10.47359430     -19.92186112       5.55964179      -0.22236221
C        6.15405000      11.68028000       9.86658200      58.14576858     -16.09742027      29.37530343
O        7.39277000       9.50445200      10.03423000     -32.38586705      46.80836876      25.52242192
C        6.77327000      10.43376400      10.65302400      31.66809560      -3.38710626     -22.93550581
N        6.67281000      10.40477100      12.03185500      10.94058135     -32.89839166       0.63627234
H        6.50081000      11.25055000      12.56983500      -0.92372695       0.15338884      -7.15263937
C        7.50823000       9.34146800      12.75458500      -2.39361434     -12.78538553     -66.36784831
H        7.46835000       9.49591300      13.80946500      -4.75506703      10.93549758      20.76346800
C        7.03043000       7.86049000      12.45632500      22.47998105      38.05551499      95.12646318
C        8.95522700       9.65117400      12.31896500      30.57277422      85.41504027      28.30178658
O        9.36028400      10.84144100      12.45739500     -18.27384268     -23.32253595      -4.07911521
H        7.24700000       7.58762000      11.49562500      -1.53546447     -14.47807952     -64.24972928
H        7.69139000       7.20347000      13.13344500     -27.04873797      14.06723031     -12.17237055
H        5.98138000       7.87626000      12.78028500       1.64317167     -16.70605065      -7.67229784
N        9.83583610       8.74060000      11.93412500     -78.32963939    -113.79646072       5.30791814
H        9.41309900       7.74489000      11.93773500      21.90702001      42.37470502      -5.15356824
C       11.22354000       8.76502000      11.77673500      14.75762762       0.70399906      -2.68372105
H       11.55409000       9.73524500      12.15534500       4.67614416       5.79995361       6.37332941
C       11.90878000       7.61612000      12.52027500      40.20397074      34.69548661      20.16941346
C       11.61712000       8.86089000      10.30093200      59.12626074       1.56331263      24.84742997
O       12.82941000       8.77024000      10.00618000      -1.38682641     -12.81501123       4.55792577
H       11.86480000       7.75845000      13.66401500     -17.10552358     -19.20112709     -35.56825973
H       11.79042000       6.64920000      12.02086500     -12.83077210      -5.28376727      14.35673265
H       12.98582000       7.82838000      12.38131500      -0.68050351      -3.47578191      -5.85630169
N       10.74709000       9.29013700       9.43514300     -79.85856250      43.47417399     -54.50133349
H        9.71738900       9.49622400       9.61972300      36.37810786     -13.05106881       6.83572733
C       11.19706000       9.89236700       8.13325500     -36.26470068      14.19473932      -9.83832756
H       12.01140000       9.22408100       7.82167500      -1.21101566       6.93377655     -10.46702046
C        9.99987590      10.02065720       7.14263500     -23.28935517     -88.45795515       0.46942395
C       11.68296000      11.37411000       8.32758500      28.85211358      32.85656017      -0.47729728
O       11.08916000      12.38760000       7.90963500       7.55392540     -33.29336149      21.49285273
H        9.66675100       8.97538000       6.71257500      12.83610473      25.76357511      29.10464304
H        9.06447400      10.42110800       7.56380500      10.33080150       5.61156971       5.00834306
H       10.17123500      10.44921300       6.19053500      19.34795206      31.67117667     -15.88138967
N       12.92289000      11.37563000       8.94796500       6.27268498      -1.92114368       0.49891693
H       13.29665000      10.40425600       8.95486500      -0.36824271      19.32081492      17.65798364
C       13.63303000      12.42153000       9.78286400     -71.51442489      -7.91342734      16.72904019
H       13.71681000      11.97648000      10.81199400       4.20812921       7.39387552     -15.27797341
H       14.59891000      12.68719000       9.41519200      17.44918170       5.36500094     -12.22261574
H       12.94910000      13.35080000       9.91656800      24.15833619     -31.84099118     -12.99075088
42
Lattice="20.0 0.0 0.0 0.0 20.0 0.0 0.0 0.0 20.0" Properties=species:S:1:pos:R:3:dft_forces:R:3 dft_energy=-0.44246645912062377 energy=-620673.4851193632 pbc="T T T"
H        5.98546000       9.64252500       9.83568000      22.71947520       7.12163903       4.26376627
H        7.40037000      10.89046000      10.16761700     -12.84582196     -24.86425737      -3.83196577
H        6.11885000      10.58106000      11.35743500      12.62872483     -13.58563493     -17.00906231
C        6.74164000      10.05345400      10.55358100     -20.37323828      18.33344959      33.15779429
O        8.19183000       8.12743000      10.44128000     -12.76855813      -3.98797471      13.63196953
C        7.62034000       8.94799400      11.19383900      17.94310137      12.26172166     -70.16491501
N        7.91288000       9.12605000      12.47116500     -12.40902064      25.25685714      31.42397983
H        7.49651000       9.94532300      12.88086500      -4.35432611       5.58219287       5.46789692
C        8.75429000       8.34094000      13.35360500     -10.91528100     -16.54690139     -19.11580507
H        8.67971000       8.74004400      14.34423500     -10.61433129       9.89215153      18.13732746
C        8.21715000       6.92148000      13.33085500      63.95003570     -32.78593250     -49.08326700
C       10.21238500       8.66826200      13.02448500      -9.18499793     -69.65784153     -80.62207604
O       10.83837200       9.44550420      13.66035500      35.25185726      47.49959559      43.09863862
H        8.49593000       6.33797000      12.37353500       2.52261649      21.09598685      26.01171998
H        8.58101000       6.32795000      14.13790500       9.13195607     -11.26524347      20.72187351
H        7.18895000       6.81756000      13.26352500     -55.72286035      10.82575214       8.82836375
N       10.71590000       8.04597000      11.84397500     -38.81891002      -8.26560581      17.16039038
H       10.07079700       7.40389000      11.31843500      15.39505418      20.76631206      14.28053535
C       12.02457000       8.32463000      11.36343500      43.32260891      26.22265496      16.21687109
H       12.41729000       9.18382800      12.10195500      -8.45349200     -44.92500377     -28.80281641
C       12.96167000       7.02078000      11.32668500     -16.21497505      38.70028872      66.83865993
C       12.13789000       8.97963200       9.99884800      29.55092458      38.18432753     -51.63806885
O       13.23865000       9.43050640       9.54657900     -16.77750784     -27.09507257      31.93840048
H       12.83243000       6.62534000      12.38595500      15.08315481       7.23272356     -20.25307644
H       12.49373000       6.26849000      10.74375600      -4.47958357     -16.44404096     -28.55159048
H       14.01454000       7.27753000      11.10512000     -12.33969650      -6.61874871      -2.78673553
N       11.06266300       9.14098800       9.18690500     -81.44389295     -40.27850900      23.80673839
H       10.09939900       8.82871100       9.53357300      34.01196247      10.06394504      -8.72076321
C       11.13828200       9.47467600       7.76937500      21.64595834      27.68889010     -14.08761279
H       12.19053000       9.18483600       7.55492500      -9.84521257       0.87070761     -11.02687509
C       10.13571300       8.90623400       6.75127500      33.24998947      11.57119400     -33.75481139
C       11.12278600      11.01470000       7.60967500      49.82070992      32.71174975      -3.95652407
O       10.29189800      11.73650000       7.09557500     -45.20585540      -4.71201496     -10.14056895
H       10.36465830       7.87390000       6.59816500      -7.19480266     -27.48956839       4.55268795
H        9.12573000       9.10554800       7.00604500     -26.93829337      -0.49185890      10.49772454
H       10.25129000       9.32356900       5.65576500       4.56562845      -2.93102454      49.31493997
N       12.32017000      11.58239000       7.94372500      44.67140778      10.13070952      29.20430390
H       13.01431000      11.00160000       8.45750500     -15.28650561       2.22521002      -7.28738890
C       12.69769000      13.01981000       7.85631500     -64.90587928       1.75176763     -10.64874451
H       12.54981000      13.40138000       6.82342500      -3.96389494      -3.71166173       8.97377854
H       12.17151000      13.73151000       8.56814500      -4.13908948     -20.86182532     -14.71224105
H       13.69373000      13.19503000       8.10316500      49.73112180      -9.47145474       8.66673778
42
Lattice="20.0 0.0 0.0 0.0 20.0 0.0 0.0 0.0 20.0" Properties=species:S:1:pos:R:3:dft_forces:R:3 dft_energy=4.7035106412367895 energy=-620668.3391422628 pbc="T T T"
H       13.82526000       8.51738500       6.31246000      13.45528186      -8.31325578     -17.21987879
H       12.28620000       7.80983500       6.87670000      18.89479735      26.92596907       5.30580879
H       13.67141000       7.87889500       7.95992000       5.21748865       8.20160245       4.74730510
C       13.18325000       8.46088500       7.17035000     -16.83190062     -39.13377196       2.46164680
O       12.18733000      10.47792000       6.60627000     -33.33163790      41.46709208     -37.31807207
C       12.81803000       9.87862600       7.42059000      17.39786999     -15.91800703      85.51316058
N       13.15778000      10.40318400       8.72254000      -3.19096043     -31.52103362     -40.73071568
H       13.85342000       9.88156900       9.23185900       0.53054296      -7.84656806       2.66685810
C       12.96813000      11.76656500       9.15267000     -21.27350405       7.57514925      -8.22261299
H       13.55446000      11.85023500      10.11154800      -9.98018726       7.32829607     -20.19062546
C       13.51417000      12.73483500       8.00673000      -2.13271858      -2.88870719      23.90402919
C       11.43917000      11.89890500       9.69568800     -18.09099286      -6.80862574     -63.14634971
O       11.20202300      12.22955500      10.84395000      -3.82876620      -0.76956666      -1.07674132
H       13.74843000      12.26620500       7.03628000      -6.04044319      -4.14468281      12.28032660
H       12.94502000      13.62828500       7.80244000     -19.55236939       5.66462342       0.27841996
H       14.41458000      13.13953500       8.43490000      20.99348193       3.70226446       0.85714141
N       10.38865300      11.59857500       8.70571000      45.03450035      22.59718031      67.98138243
H       10.63252800      11.14555500       7.85567000      23.14098966      -7.76678013     -22.46007258
C        8.98955000      11.36389500       9.02211300     -12.88717943     -13.16068390      -2.16051934
H        8.63012000      12.12465500       9.74684200       5.34860015      -5.65581866      -3.23616925
C        8.20910000      11.55761500       7.66727000      71.92397057     -50.93262168     -10.03330022
C        8.91710000       9.92959100       9.70501200       0.86190878     -23.11586707       2.46158755
O        8.63373000       8.85793500       9.12483700       0.21210105      25.59684168      -0.81884486
H        8.01176000      10.58222000       7.09696000       1.59129114      24.41110267      23.58158307
H        7.35355000      12.10485500       7.86417000     -44.32988271      26.75982815      -1.09078390
H        8.98921000      12.10077500       7.06215000     -28.45394417       0.56247117       2.50055127
N        9.32121800       9.97169500      11.01854000      -3.47569896      16.39166272     -45.93678067
H        9.58392900      10.93851100      11.13909000      16.44309294       6.16798776      34.41842707
C        9.78582400       8.84739500      11.85807000     -62.13042521      28.28910678       7.74089911
H       10.13391100       8.09018500      11.19437000      12.60597229     -19.73296765     -13.38477269
C       10.74342300       9.32448000      12.88888000      14.17625289      23.67259322     -34.26164787
C        8.41947000       8.32989500      12.52506000      37.42839817      -3.71950662    -107.27359263
O        8.23204000       8.30255500      13.68015000     -17.24654192      -4.56669498     103.09767248
H       10.77992400       8.65609500      13.68754000       9.04245091     -35.45864464      31.33036262
H       11.71791000       9.46692500      12.38185000      -2.46145720       3.38375263      13.97242807
H       10.37985370      10.24127900      13.34070000       1.12321575      12.59554405      -1.11362295
N        7.57617000       7.88486500      11.54943000     -27.98965020       2.58657245       0.42676413
H        7.71897000       8.26285500      10.58857100       1.36784226     -16.79315021      11.65053162
C        6.23967000       7.39324500      11.89291000     -11.83607145     -21.49403776      22.51624290
H        5.58542000       7.36736500      11.00510000       6.66357831       0.17968579       4.66552631
H        6.24611000       6.37171500      12.37806000      10.48179776       7.84048887     -20.97973561
H        5.69989000       7.89040500      12.73322000      11.12903635      17.84130747     -13.70378223
42
Lattice="20.0 0.0 0.0 0.0 20.0 0.0 0.0 0.0 20.0" Properties=species:S:1:pos:R:3:dft_forces:R:3 dft_energy=14.133577051456086 energy=-620658.9090758526 pbc="T T T"
H       11.82890000       8.10270000      11.39469500       4.24386965     -19.91214389      -3.47497609
H       11.27240000       9.47323000      12.23256500      13.89492724       8.02434596     -14.06000164
H       12.93449000       8.97323000      12.51399500       6.57286442      -1.47579831      -6.50620660
C       12.18706000       9.06416000      11.71881500     -26.14148054      -0.22204344      -7.67931321
O       12.53325000       9.50695000       9.25599900       6.51511801       3.11268933      36.62506770
C       12.64156000       9.85656400      10.44916300     -16.92919142     -20.89180653       7.59358828
N       13.15271000      11.01827100      10.87119100      24.81614523      83.40855087      -1.51631442
H       12.93358000      11.36209300      11.84363500       9.23625039     -18.91529834     -30.67764920
C       13.55235000      12.18887000       9.88063780     -18.81314892     -19.19567596      40.18512880
H       13.75712000      13.08888000      10.61858800     -15.78552090     -32.63247138     -34.84610367
C       14.87534000      11.85321000       9.09443200     -38.40865333      -3.01448606      14.28515696
C       12.27448000      12.44184000       8.94849800     -22.96406498       2.47500207      45.44582357
O       12.32434000      12.96833000       7.85857500      18.32112530       3.40296194     -25.46637009
H       14.60967000      12.18348000       8.03275500      26.60850007      -2.53413496      26.10960329
H       15.63754000      12.39526000       9.72554400      -1.33815731     -13.02689424     -33.22474837
H       14.99958000      10.72567420       9.13959800       2.70091580      28.71559835      -4.99943165
N       11.04887000      12.13437000       9.52455700      -5.74123548       1.95210846     -17.08656314
H       10.92320000      11.76466000      10.45787700       8.65295591      -1.77635696       6.56501954
C        9.77364100      11.84293000       8.71183500      82.53767379      -6.13605125      65.27525250
H        9.46350700      12.80212000       8.38557500     -18.11338989      22.82980131     -18.28675949
C       10.14208200      10.87079500       7.65015500      -6.64157234     -20.90875243     -16.17231404
C        8.83253000      11.28479800       9.77384200      20.36980170      35.18964329      -3.28955476
O        9.10067200      11.26450800      10.97167500      11.82680454     -14.48281963      25.70183516
H        9.56772600      11.17514700       6.78262500       4.79789394     -10.47698655     -19.65155623
H       11.21449000      10.80052100       7.50664500       5.50472759      17.00621824     -14.18691814
H        9.98415280       9.81815600       7.90454500     -18.34648490      -1.27120323       4.92533185
N        7.65405000      10.99802300       9.29283600     -35.22377209     -37.04184204       5.18196151
H        7.52189000      11.23319700       8.35221500     -14.63414770       0.17034185     -41.82497053
C        6.53209000      10.64348235      10.15119400      -0.27593021       5.53528946      26.26436795
H        6.85756000      11.26190600      10.98761500     -11.48990108      -6.23270214      25.63748814
C        5.22172000      11.15655000       9.63059300     -13.37683300     -41.22653140     -39.09751010
C        6.39034000       9.14098000      10.69171200      -7.33025136      22.76936488     -20.30581019
O        5.35120000       8.50899000      10.58961600     -12.79711731      -2.06433062      -3.45672666
H        4.36246000      10.46700400       9.82100650      14.57394828      10.31057307       8.95035053
H        4.97468000      12.16480000       9.82763940      -3.32064989      28.50193780      15.79298658
H        5.30348000      11.09751600       8.53945500      -4.26722655       1.73227392      -9.71702810
N        7.48999000       8.66403000      11.26829500      42.62190186      22.72575585      47.73541616
H        8.19362000       9.36808000      11.59484500     -14.61459474      -7.71628608     -20.45382018
C        7.51914000       7.47655000      12.14659500       9.87255117      18.17631488     -23.22441563
H        7.48215000       7.71893000      13.21737500      -1.57465335       6.19574111      -0.37342365
H        6.62479000       6.91112000      11.88186500       8.36962757     -16.33987700      -1.64507956
H        8.53359000       7.11441000      11.89688500     -13.90950309     -24.73994793       8.94917736
42
Lattice="20.0 0.0 0.0 0.0 20.0 0.0 0.0 0.0 20.0" Properties=species:S:1:pos:R:3:dft_forces:R:3 dft_energy=2.707802549470216 energy=-620670.3348503546 pbc="T T T"
H        8.75828000       6.23734500      11.20766000       2.49690138      -0.54537003      11.01906575
H        7.85697000       7.62748500      11.77356000       3.44683167      -1.13543220      -3.99509673
H        8.58538000       6.68080500      13.04566000      16.10844103       1.62396236     -29.03685944
C        8.77047000       7.03176500      11.97410000     -33.02566367      -3.69226282      14.21204073
O       10.26299700       8.37399500      10.62826400      -6.02478897     -11.35587441     -21.88865208
C        9.91079560       7.95724500      11.73739000      12.85696122      15.14039166      -6.08281979
N       10.56157400       8.44041500      12.80447000      17.82661312       4.10949933      25.65561906
H       10.15588100       8.18572500      13.71951000      18.76373326      11.98750618      -8.69596058
C       11.68075000       9.43451000      12.59751000      20.03064669     -15.79429011      31.01621170
H       11.95869000       9.75442200      13.70386000     -17.36966632       1.26707933     -49.85566824
C       13.05145000       8.75897500      12.03458000     -59.81357698      31.63989193     -16.65023583
C       11.10396000      10.63847800      11.75199000      39.24765315       9.38618013      -0.07838214
O       10.23107500      11.34556500      12.17558000     -43.34891653      14.49549943      28.05885584
H       13.78678000       9.45732300      11.62187000      -6.85945159       2.14781584      -0.32201714
H       13.48081000       8.19251500      12.77223000      30.46292213     -22.87755794      59.83312994
H       12.80047000       7.95616500      11.37238000      -7.87272163      -3.83246348     -30.96087089
N       11.80030000      11.01150800      10.61138700       4.18555443     -53.41170025       7.42561057
H       12.03824000      10.10409050      10.15354040      12.82389894      26.53182876      -2.55544177
C       11.47611000      12.15108500       9.79414800     -19.92506069       0.84034601     -41.16965005
H       10.74231800      12.84098500      10.22699300       3.17761702      -5.94679043      19.88868033
C       12.74947000      12.92069500       9.41815200     -13.43466237     -23.26968370      -2.35173546
C       10.64932300      11.82697500       8.47479000      25.39052830     -44.63941202      55.19564139
O       10.33772400      12.72273500       7.77199000     -21.18877454      65.06028842     -52.47185455
H       13.13786000      13.22031500      10.39758600      14.34203830       7.30318532      -8.21148558
H       13.34917000      12.11186500       8.92815000       7.93621543      23.85034742       4.67447328
H       12.50112000      13.76265500       8.73312000       7.73137149     -10.81220727       9.84537848
N       10.26218400      10.53375500       8.28569000      26.82701924      -7.34515902      37.85595627
H       10.54649000       9.89787700       9.04375000      -8.14776663      -1.25884339     -10.88201727
C        9.09989300      10.19288220       7.56518000     -36.52185176     -18.18650612     -26.19054070
H        9.02761500      10.92386900       6.75490000      -8.93745743       2.22862290      -2.38420522
C        9.21516000       8.78682500       7.00752000     -10.85527118     -22.18325004      19.57832150
C        7.78292000      10.12107310       8.37884000     -13.47364979       8.83652860      22.97153066
O        6.65358000       9.80522200       7.94506000      36.51592662      12.55122400       6.74680283
H        9.55013700       8.11405500       7.84841000      -4.95704320       8.22448534     -14.51801496
H        8.21905000       8.39636500       6.65219000      23.58407163      10.85364770      -0.86464264
H        9.99421580       8.84439500       6.28049000      12.13907126     -13.25678967     -23.29291025
N        8.04952000      10.34631400       9.69580700     -72.14557080      -8.85552459      16.42199944
H        8.93222000      10.60883500      10.03395470      32.03545428       7.33960123       0.49348002
C        7.01875000      10.48139700      10.78838000     -39.35608321       5.77731958     -78.75127235
H        6.42561000       9.53262600      10.98017900      22.51375434      18.32337685       2.89021218
H        7.61197000      10.92066900      11.54077000       3.44140425       5.26516233      39.68243992
H        6.21322000      11.24675500      10.40419400      29.37340739     -26.38476679      17.74508319
42
Lattice="20.0 0.0 0.0 0.0 20.0 0.0 0.0 0.0 20.0" Properties=species:S:1:pos:R:3:dft_forces:R:3 dft_energy=10.029239740455523 energy=-620663.0134131636 pbc="T T T"
H        7.14322000      10.17422400       7.73618500     -17.73335142     -16.74823764      13.80806469
H        6.26918000      11.16119500       8.70670500     -20.32370411      68.63788794      26.08222914
H        5.66981000       9.53450700       8.70046500       3.79427003       0.26385715      -8.93936533
C        6.55895000      10.18293800       8.70518500      49.67720303     -75.39361403     -22.79614651
O        8.43919000       8.77169700       9.43567800     -29.31794808      12.40783561      12.99691303
C        7.56330000       9.60250330       9.75111400      13.87762583      27.42747292      -8.92525164
N        7.49764000      10.20700200      10.99526100      40.15668812     -75.00302880     -11.22893421
H        6.86552000      10.93630500      11.11065000     -30.92366101      33.03940999      11.13982011
C        8.29366000       9.71298000      12.12496500      27.25813242      -3.33873342      14.89106177
H        8.21720000      10.39177500      12.93757500     -17.23030703      33.25022647      12.18753891
C        8.02552000       8.40002500      12.91903500     -42.46156757     -13.28262328     -22.72812591
C        9.83683000       9.82617200      11.99205500     -27.48056218     -25.79995547     -34.24932357
O       10.47559400      10.79953500      12.30319500      15.58655470      40.83310210      17.86797060
H        8.23680000       7.42330500      12.40036500      -1.55004032      20.03609781       7.32749025
H        8.58481000       8.45817500      13.86684500      -0.79082725      -1.77979354      -6.15868529
H        6.92651000       8.40974500      13.15885500      15.60705569      -5.22855681       1.22251043
N       10.42675000       8.68851600      11.59012500     -27.50260370     -31.62496058     -24.51846620
H        9.93028000       7.93471500      11.06389800      -2.49174651      25.65775211      17.15434674
C       11.77795100       8.45125500      11.75771500      60.82997549     -23.36981857     -40.22257568
H       12.18173000       9.10374300      12.51346500       6.86057737      11.61732714       6.90776518
C       12.05530000       6.99251500      12.08039500     -34.85641342       8.41096134      59.81879110
C       12.69016000       8.58604500      10.48734700      -5.81227790      32.59170642      12.05137919
O       13.89257000       8.35182500      10.55199300      -1.88626831      -0.14584258      -3.00384451
H       12.06781000       7.01528500      13.19000500      -6.53412586     -18.63800179      -2.77826258
H       11.16270400       6.40498500      11.74607500      26.34554236      -5.78207154      -0.65040380
H       13.07018000       6.77021500      11.81612500       7.27232719     -18.49556142     -15.17369095
N       12.07554000       9.07548200       9.37999800      87.42046314     -23.98153002       1.88546249
H       11.12751700       9.08627100       9.32388500     -81.54118375       2.40468251      -3.16115698
C       12.86828000       9.31439700       8.19018500     -16.32411613       9.04002160     -12.73158526
H       13.70321000       8.64480500       8.04014500       3.83526015     -17.00692926       9.37985208
C       11.94677000       9.29563100       6.93091500      -0.41766430      53.35884800      -7.22887222
C       13.49555000      10.65639900       8.27963500      27.94580417      67.15695845     -43.37463164
O       14.33019000      10.98447500       7.38392500     -24.62938482     -11.99212779      40.91486903
H       11.94919000      10.33248800       6.37647500      -2.08644324     -36.56925288      27.64196299
H       12.25017000       8.62171500       6.13315500      -1.85763803     -13.68896938       5.73225296
H       10.95276720       9.12163700       7.36142500      -6.42823175      -5.56653865     -19.26997722
N       12.96491000      11.59060500       9.16004100       3.50333381     -25.71332993     -16.30551119
H       12.24888000      11.29273500       9.81902700       3.70500187      -1.85503097      -1.66343565
C       13.25587000      12.99894500       9.06192500       5.71745196      10.87553516       8.32744057
H       13.49259000      13.35393500      10.07606030      -2.44447575       4.40595778       0.68617861
H       14.21464000      13.11066500       8.48803500     -24.84103082       2.57604940      -1.80882673
H       12.34735000      13.59501500       8.70600500      28.07236516     -12.98755131      -1.10687895
42
Lattice="20.0 0.0 0.0 0.0 20.0 0.0 0.0 0.0 20.0" Properties=species:S:1:pos:R:3:dft_forces:R:3 dft_energy=23.001342336647213 energy=-620650.0413105674 pbc="T T T"
H       13.57161500      10.68657500      13.56798500       8.26334241      11.52867519      22.91559734
H       13.47502500      10.83283500      11.85713500     -12.53143403      31.57590042     -38.71522007
H       13.98511500       9.29955000      12.48951500     -16.29899353      27.67206270      10.70807886
C       13.28952500      10.20233200      12.66400500     -20.34420509     -98.07232427      22.52939671
O       10.81361600      10.28978500      13.09990500      21.47946191     -30.99168162      -1.45981229
C       11.79915500       9.57374285      12.92884500      45.84529651      -8.26642348     -23.36946306
N       11.91375500       8.06900500      13.01990500     -53.62962690      45.98667035     -27.66033092
H       12.56304500       7.68525500      12.28465500     -14.26299694      14.64327242      21.08378106
C       10.55502800       7.27277500      12.93852500      32.05915484     -11.69566934      35.77101802
H       10.94491200       6.28663500      13.14830500      -0.31824638     -17.64648886       4.42572405
C        9.56640200       7.70871500      14.08277500     -25.99050798      43.14603974     -62.35960963
C       10.00966130       7.17070500      11.51197500     -22.37048446      76.39946579      31.80887692
O       10.57165700       6.61073500      10.59906100       0.30393124     -13.54404045      -6.49488958
H       10.01248710       7.79153500      15.04987500       9.22409200     -16.25822857      19.51587052
H        9.46475500       8.83904100      13.81537500     -13.38631323     -35.92447915      13.93225562
H        8.52279500       7.17845500      14.04364500      45.12479949      16.66125659       4.95871409
N        8.95045500       8.13396500      11.35642200     -10.03673680     -37.40126103      14.44560975
H        8.34253500       8.39633500      12.20380500      31.75566917     -14.31691571     -36.67898647
C        8.31545500       8.13427500      10.06490100     -24.72501658     -14.29594071     -24.76720358
H        8.81434500       7.37010500       9.38789500       1.49917892      18.83447943      18.43619152
C        6.82214500       7.64660500       9.98737100       7.11160185      28.12415088      74.73604199
C        8.41320500       9.44933000       9.38265500     -17.27747115      65.51356163     -34.98795152
O        7.81510500       9.68882700       8.30718500       9.17907279     -21.05273333       7.39953995
H        6.86130500       6.70585500      10.50832960      -8.66736585     -19.65665185       4.16549190
H        6.01488500       8.28055500      10.51144030      30.51553737     -10.22820177     -13.35455448
H        6.53802500       7.52357500       9.00134500     -12.40866513      -5.99170299     -50.30242380
N        9.04439300      10.51161400       9.98281100      31.08032171     -51.20873321      60.66620462
H        9.52229000      10.31688500      10.94405200     -18.72047974      10.69001903     -50.05214589
C        9.31790300      11.75412500       9.31735500       5.47770895       5.78580438      -6.01018943
H        8.38614500      12.08746500       8.86596500      -8.99673253       5.13444189      -2.17810515
C        9.82157600      12.73927500      10.34525280       8.45625311      34.76350722     -61.96132172
C       10.39879400      11.62580500       8.19020500    -122.37902597     -14.97851684       9.26401559
O       11.52780500      11.57883500       8.50198500     112.90970427      -0.28001145       7.99448325
H        9.09308900      12.75380500      11.10660200     -11.69459096      13.47791589      33.21763820
H       10.84767800      12.57157500      10.59017600      15.64473958     -19.93169685      20.66048906
H        9.97894002      13.71336500       9.78074100     -19.31939288     -10.49642101      18.43239943
N        9.84548700      11.47631500       6.96794500      -6.60267973      -1.60538112     -36.70979720
H        8.83331500      11.37930500       6.80320500      14.16523213      -0.15843469      19.27720589
C       10.67597300      11.26520500       5.80230500     -50.03982159     -37.15797479      12.25698155
H       10.33483500      11.75024500       4.95012500     -24.87693717      30.77659904     -36.99444092
H       11.58568500      11.62446500       6.00842500      87.51230281      32.86011526      19.61055426
H       10.80574500      10.24270200       5.48310500      -2.72980679     -22.41421199       5.84397740
42
Lattice="20.0 0.0 0.0 0.0 20.0 0.0 0.0 0.0 20.0" Properties=species:S:1:pos:R:3:dft_forces:R:3 dft_energy=18.666553744813427 energy=-620654.3760991592 pbc="T T T"
H        4.89479500      12.87277500       9.94662400      41.25485357       7.24308070      30.00170923
H        5.85077500      14.36400500      10.12148960       0.74929557     -11.75535920       6.93707092
H        6.04560500      13.26004500      11.44447000       3.82577993     -15.68467502       8.12289289
C        5.92498500      13.26833500      10.37058100     -45.19092405      39.57448387     -60.05401916
O        8.11016500      13.37652500       9.24533200       2.17423011      15.56332815      12.77436477
C        7.05519500      12.79717500       9.46970200     -14.46302966     -38.73666908       8.46155019
N        6.80427500      11.53308500       8.96731000     127.05159135       2.98931607      -3.82054210
H        5.93625500      11.22997500       8.79421000     -98.24225728     -27.70322894      -3.25828187
C        7.75799500      10.80867800       8.01115000     -47.43169348       5.13066165     -51.24843165
H        7.37588500       9.76697000       7.71628000     -11.48865680      34.29921325      10.71033041
C        7.81720500      11.75947500       6.71724000     -11.99402384      12.37062573      27.51563900
C        9.11182500      10.37801500       8.42348000      33.15779429      -0.62174271      22.09318791
O        9.54722700       9.23127400       8.11925000     -16.80357845      28.41246819       2.58197454
H        8.24551500      12.71869500       7.12594000      -5.32409377     -16.83036008     -17.31681408
H        8.40023500      11.37759500       5.88814000       9.32173831      -6.37996556      -2.43670196
H        6.78532500      11.98736500       6.32370000      15.98330207      -8.06663961      10.78670547
N        9.86728100      11.29266500       9.09021000      -1.74388720     -55.08081218     -15.48393128
H        9.47517300      12.12844500       9.43664900     -18.22134594      32.97067837       5.65158811
C       11.17407500      10.87366000       9.51987100       5.83890548     -25.29620007     -50.79705448
H       11.53252500      10.27521600       8.51787000      -7.45739302      18.14882223      60.58585972
C       12.01552500      12.10647500       9.73263900     -36.61973507      15.94751423      -3.90033004
C       11.00876500       9.97379000      10.82866600      35.98029397      -2.26807248     -64.63853696
O       11.15328700      10.45312600      11.92041000      -5.10568126      18.60944261      46.39206842
H       12.02675500      12.31131500      10.79882900     -10.71444246      18.91186176       7.22065997
H       13.00989500      11.91196500       9.52682600      53.80477403     -11.96131706     -17.26964996
H       11.67019500      12.93299500       9.02454000       8.23922709     -16.26581275      27.21594542
N       10.94723000       8.65560500      10.53424600      13.81742641      12.78076392      61.85739476
H       10.58562900       8.43828500       9.64112500      -8.93525328     -12.97179043     -34.50588213
C       11.04595100       7.62680500      11.57409000      46.66770593       6.44341196      16.71955997
H       10.53096000       7.83244500      12.51636000     -11.25105868      15.48416828      -2.43891796
C       10.51363400       6.40062500      10.96651900     -67.35924273      29.45612234      16.06175093
C       12.59011500       7.37862500      12.09006000     -48.99853750      83.89607138      17.74152811
O       13.19968500       6.40002500      11.81228000      36.59911558     -44.52517532     -18.02320926
H       10.42965700       5.63599500      11.68977000      -2.50353754     -27.81071097      17.45119625
H        9.46921400       6.76068500      10.67605600      20.73360529     -25.73963755      -4.02090664
H       11.10676000       6.11337500      10.16903700      23.62211103     -19.48387477     -44.27892650
N       13.08739500       8.49448500      12.80260000     -18.76077069     -46.13870944      -0.79277543
H       12.48719500       9.04197500      13.39917000     -17.84675860       4.39442746     -13.50161645
C       14.47217500       8.78284500      13.03273000     -12.58748586       8.31522293      30.83229535
H       14.75331500       8.90041500      14.11186000      -9.59965107       5.12576749     -12.62137766
H       15.10520500       8.02236500      12.68779000      20.89619113     -28.86017177     -22.35934520
H       14.55650500       9.68432900      12.47024000      28.92558531      26.11339538      -4.94800144
42
Lattice="20.0 0.0 0.0 0.0 20.0 0.0 0.0 0.0 20.0" Properties=species:S:1:pos:R:3:dft_forces:R:3 dft_energy=23.482985513517633 energy=-620649.5596673905 pbc="T T T"
H        6.56171000       8.49630000      13.94843000      -4.42814151       7.53462129      11.02016783
H        7.97019000       7.39342000      13.82324000      14.53081326     -12.76073695      15.32964063
H        6.25699000       6.80988000      13.33705000      28.92463729      24.18262927      13.02570921
C        7.02376000       7.68073000      13.42218000     -35.11439401     -31.72272539     -41.23494510
O        6.47131000       9.10686000      11.58026000       8.69610278     -20.81513522       8.21242175
C        7.18971000       8.14841000      11.98914000     -45.51147412      56.76995108      31.55907302
N        8.12960000       7.65938000      11.21600000      25.66296624     -12.24276121     -23.35939032
H        8.59459200       6.78704000      11.41174000       2.45285389      -4.48426443      17.00361118
C        8.11081000       7.85599000       9.78389563       2.55225404     -42.39911660     -39.02273484
H        9.08890700       7.38206000       9.45543900     -23.56914028       2.46034327      -0.37459209
C        6.82484000       7.13688000       9.13668000       2.62091456      63.10522924      70.98436187
C        8.24856000       9.21984100       9.14060800      22.08832929     -14.72172127     -66.54927610
O        8.45586000       9.29674800       7.89515000      -7.36231822     -10.50005904      39.83744158
H        6.01507000       7.89242000       9.39849000      13.02523520     -12.14665544     -35.46397727
H        7.07300000       6.81385000       8.18199000      -5.19778164      -2.55482555     -49.03159978
H        6.44981000       6.34462000       9.74062050       8.00583582     -31.59628290      15.21895902
N        8.32095000      10.25310800       9.94785300     -21.69004139      76.83496358      24.76483352
H        7.68402000      10.16889890      10.78460000      12.62765830      -1.47724405     -13.40053356
C        8.38221000      11.68629000       9.37423800      62.10790968     -50.33264201     -31.45727912
H        8.31916000      11.66843000       8.24664000     -23.14383373      -4.62073226      20.98530524
C        7.56081000      12.55788000      10.17702900     -82.67063393      34.76172968       6.03378334
C        9.81842800      12.18823000       9.44774300      74.32649632      39.85770556     -10.54740091
O       10.30041700      13.17032000       8.79768100     -59.21395282     -19.89981959       3.05224105
H        6.43574000      12.36995000       9.94639800      34.53207125       7.66169184       9.61785310
H        7.71174000      12.27584000      11.22428000      -0.34666690      10.30237267       5.55821975
H        7.74461000      13.65538000      10.00117200       0.61310741     -22.12636869       4.73411573
N       10.73296000      11.56190000      10.24139200       9.86000172     -13.54404045      -7.08153769
H       10.46678200      10.63678900      10.53388000      -0.28665946     -12.29573196       7.67111282
C       12.19655000      11.85225000       9.97204700     -48.23075786      17.61153054     -12.19204201
H       11.97106000      12.92949000       9.48779000      29.08319403     -38.86050450      25.11927539
C       12.98009000      11.76658000      11.25956000      24.19578308     -42.93913385      10.40797052
C       12.78842000      10.97058600       8.87849000     -31.45941217       5.87279728       6.15419403
O       13.98493000      10.89886200       8.73462000      40.59870357      -0.65397192       0.83274050
H       12.29328000      11.83101000      12.07227000     -10.91355086      39.23651389      22.33884421
H       13.41441000      10.77821300      11.67581000     -10.96493368       7.66098083     -41.08503905
H       13.88943000      12.34667000      11.18449000      -0.48812014      19.94496916      13.29352553
N       11.91582000      10.21673850       8.14958000     -39.81777012       8.29841923     -38.57135767
H       10.95333000      10.58113300       7.91654000      28.36862215      -9.02338381      22.18609410
C       12.44168000       9.46380200       6.99771000      -1.10565363     -11.50991620      33.81880290
H       12.00421000       9.78955700       6.05157000      15.71027162      10.46425935      -4.93834346
H       13.52175000       9.39137600       7.19933000       0.33644485      11.56409568     -23.33971886
H       12.09880000       8.45250000       7.12819000      -9.40510503     -20.89713915      -1.11055491
42
Lattice="20.0 0.0 0.0 0.0 20.0 0.0 0.0 0.0 20.0" Properties=species:S:1:pos:R:3:dft_forces:R:3 dft_energy=9.386280667036772 energy=-620663.656372237 pbc="T T T"
H        8.62434000      13.70194000       5.53156500       0.77426767      11.25972124       0.64700751
H        9.36534600      15.07541000       6.59632500      -5.67799053      13.43169980     -13.72357219
H        8.73152000      13.69513000       7.32789500     -12.65491395      -5.33209271       0.86479432
C        9.21069200      14.01996000       6.40272500       8.76399303      -0.96178650      10.32798113
O       11.19469000      13.48005000       7.57145500      25.08384306       4.49421867       7.50464008
C       10.55035200      13.34078000       6.54833500     -44.68977571     -11.47704352      -4.14057076
N       10.74023600      12.32277000       5.66799500      45.04303255     -16.28986882      30.27983530
H       10.35735400      12.18679000       4.77706500     -31.67686480      14.19308028     -27.94461914
C       11.86549000      11.41626000       5.81903500      17.79994999      13.96602892       2.64308644
H       11.88491000      10.84900000       4.87468500      -0.01404554      -4.05832982       4.83013855
C       13.26696000      12.05228000       5.91701500      35.51979209      32.82183885     -39.91434990
C       11.79225000      10.39848800       6.93015500     -18.42730381     -34.11742996      27.88252367
O       12.62172000       9.48294200       7.01055500       9.01245785      10.54373918     -18.16553113
H       13.67539000      12.51987000       6.84698500     -18.63172114     -22.02812987      -2.26164963
H       13.93069000      11.24056000       5.52160500       0.10833431      16.18594186      14.59338274
H       13.41582000      12.95354000       5.19464500     -14.22614257     -32.47723271      13.72558674
N       10.76004000      10.37274300       7.84095500      23.72319391     -22.30222685      -2.91463560
H       10.09860540      11.10608000       8.01803500      -8.36476895      11.36612490      -1.46994427
C       10.81701500       9.31911100       8.85839900      29.79385532     -15.58596219      -1.12334018
H       11.12483000       8.27683000       8.41123900     -19.78475338      42.00912388       4.01027694
C       12.09655000       9.45778900       9.92459200     -21.26710489      35.18265162     -51.00194582
C        9.39982300       9.23194200       9.48407900      -6.36645625      -9.32904993      43.77007548
O        8.56341000      10.17605800       9.47044900      33.33685202     -45.69704950      -2.35117849
H       13.05161000       9.36097700       9.36629200     -14.97638379     -18.62366295       0.02097879
H       12.25769000      10.48327800      10.32039500     -21.48704609     -10.36072345      10.50303346
H       11.85219000       8.66692000      10.58936500      10.68591883     -11.99153528      29.24637239
N        9.22869000       8.01979000      10.24267500      47.10130768       5.69705763     -56.21749103
H        9.98951880       7.23300000      10.18249500     -44.57992361      39.86908183       4.51787183
C        8.06905000       7.77318000      11.04040500      23.84880688      24.11638620      37.01043880
H        7.95854000       8.71637800      11.59290500      -8.28668746       3.81658411       7.29556559
C        6.79607000       7.42118000      10.40014500     -31.03718669     -19.74813601     -17.42405911
C        8.40716000       6.67484000      12.05319500      22.41255295       7.66111118       2.83034456
O        9.29386300       5.86540000      11.86612500      21.07619688     -24.12811798     -20.06667154
H        6.06931000       7.15809000      11.18353500      -1.41103653       2.26629494      -1.04212073
H        6.34592000       8.21074000       9.79041900       5.39794472      -0.90029658      -5.12223610
H        6.97256000       6.49004000       9.84521800      -7.32772725       2.05224333      -9.99161093
N        7.73280000       6.70661000      13.20798500      14.60013740     -32.33076325       9.10728379
H        7.28212000       7.55849000      13.36046500     -26.92111046      32.83902176      17.38056858
C        8.00365000       5.80875000      14.34617500      11.22872091     -13.29222200      -3.69712144
H        7.27770000       4.92459000      14.28253500      17.27379756      26.90878617      15.97950999
H        9.06202400       5.36578000      14.41918500     -27.89010785      15.74854803     -20.44576199
H        7.98277000       6.47962000      15.22293500     -16.88593790     -15.39777974       4.04704835
42
Lattice="20.0 0.0 0.0 0.0 20.0 0.0 0.0 0.0 20.0" Properties=species:S:1:pos:R:3:dft_forces:R:3 dft_energy=-52.9600088406587 energy=-620726.0026617447 pbc="T T T"
H       12.37386500      12.89354500       7.99292000       1.07102356       1.79038769      -3.86022869
H       12.90028500      11.57652500       9.04198500       2.84401978      -2.96262924      -0.01422555
H       12.49704500      13.16280500       9.74591800       1.53296406       2.96370761       2.71665298
C       12.23175500      12.43785500       8.97482000      -2.08050625       1.07468648       1.39183908
O       10.36291900      11.10849500       8.30342000      -7.37588679     -14.11889753     -13.54534398
C       10.80917200      11.95446500       9.07078700       7.25369855       7.89588893       5.76582481
N       10.03547700      12.51609500      10.03437100      -2.07217550       1.85364449       0.69462430
H       10.48624200      13.08448500      10.73062600       2.81534211       4.46251917       4.71162390
C        8.65984500      12.09611500      10.28686700      -2.36697492      -1.01640799      -4.19684774
H        8.34440500      12.63961500      11.18030000      -1.31580768       2.51806598       4.05798616
C        7.72427500      12.46097500       9.13735400       1.15255586      -0.17101139       1.87018748
C        8.66783500      10.62319800      10.73906700      -5.45405579       5.32318130     -11.19517276
O        9.24849500      10.31869400      11.76987000      10.59537085      -5.17571642      19.72870155
H        6.69725500      12.16974500       9.37098600      -3.57300161      -1.03812718       0.86601253
H        7.74175500      13.54170500       8.98626700      -0.35223061       4.24948669      -1.02164463
H        8.03586500      11.99011500       8.20362000       1.04905670      -1.80401552      -3.31512766
N        8.03724500       9.71601300       9.96427500      -2.48151972      -2.74255769       0.44950363
H        7.71087500      10.00468900       9.05558900      -2.84066616       2.00394159      -6.16763225
C        8.10887500       8.29136500      10.25355800      -1.28904975       1.07763720      -4.90234231
H        7.83414500       8.14358500      11.29958000      -0.99853895      -0.47334166       5.00604411
C        7.14981500       7.52398500       9.35110600       0.92209872       1.59902937       1.40744590
C        9.52859300       7.70204500      10.14247300      -3.51395166      10.73856963      -5.01930457
O        9.77982000       6.64663500      10.69376200       4.13040322     -19.93382990      10.47145247
H        7.22747500       6.45829500       9.56648000       0.32986558      -4.02777980       0.82402344
H        6.11934500       7.84325500       9.52239700      -4.09319334       0.94789560       0.40948168
H        7.39668500       7.67725500       8.29556000       0.85176257       0.49902003      -3.66690322
N       10.41039100       8.41530500       9.40868400       2.41804962      -1.54436403      -1.18190071
H       10.12126900       9.28362500       8.97243000      -1.32909185       7.18436257      -2.62810768
C       11.81890500       8.09038500       9.30082300      -1.65124171       2.50623941      -2.31560395
H       11.94872500       7.10772500       9.76390400      -0.35907652      -5.06940755       2.24914758
C       12.26115500       8.04413500       7.84307000      -0.77157765      -0.34066948       1.62774260
C       12.69895500       9.06093500      10.11114200     -10.82930722      -2.80946437       0.58672514
O       13.88065500       9.21473400       9.84169900      20.97155891       2.35375000      -5.01711227
H       13.33146500       7.84967500       7.78313000       4.06375725      -0.58367369      -0.08551209
H       11.71758500       7.25625500       7.31790000      -1.72556666      -2.80362218      -2.07108528
H       12.05599500       9.00046100       7.35404000      -0.65009806       3.19667227      -1.91111835
N       12.09764500       9.71062800      11.13016000       1.14424881       1.57671530       3.41085422
H       11.12059200       9.55556800      11.33530000      -7.46747760      -0.62708126       1.41997164
C       12.84962500      10.56183400      12.02488000      -2.09797356      -1.17359721      -1.21011504
H       13.50137500       9.97858800      12.68210000       3.10192928      -1.95027167       2.91419714
H       13.48150500      11.24723500      11.45547000       2.92235013       2.44152503      -1.82298781
H       12.14464500      11.12892500      12.63357000      -2.48105756       2.10950388       2.56838227
42
Lattice="20.0 0.0 0.0 0.0 20.0 0.0 0.0 0.0 20.0" Properties=species:S:1:pos:R:3:dft_forces:R:3 dft_energy=6.215271043241955 energy=-620666.8273818608 pbc="T T T"
H        4.18000500      11.74871000      10.76125300     -15.08315481       4.19991696      -8.57956713
H        5.44797500      12.86374000      10.24666600       4.39667901       6.29358887      -1.11284320
H        5.16418500      12.35065000      11.93167000      18.33795270       3.78628294      25.20874501
C        5.21899500      12.04019000      10.91218000     -42.64429889     -12.11821477     -15.96848922
O        7.16256500      11.03652000      10.06924900      -9.51773009      -9.72631872       8.04328271
C        6.02341500      10.86118900      10.54125300      44.40240642     -25.48331599      -6.16786925
N        5.51484500       9.57174800      10.70283400     -46.64127981      10.79353123      25.35936207
H        4.48624500       9.42956800      10.91178000      38.82187259      10.87845033      -3.33181286
C        6.25475500       8.35247000      10.35120400      -5.43317560      16.18677138     -26.49722595
H        5.71016500       7.45305000      10.67190000      -4.86250167       5.96315567       5.59699387
C        6.26379500       8.40883000       8.82081300      15.73326117       5.09470790     -44.77260917
C        7.58781500       8.35488000      11.11718000      15.63834043       2.91944682      -9.19112452
O        7.61323500       8.59891000      12.31893000       7.77076182      -1.77886922      -7.88051911
H        6.62211500       9.38594200       8.42826000      -3.27907911      -3.04315189      15.42053228
H        6.87350500       7.73978000       8.18568000       2.97240572     -13.52792407      16.60046465
H        5.27224500       8.29552000       8.35992000      -6.04219704      -1.85942743      11.87824660
N        8.67933500       8.05748000      10.32338400     -47.93663391      -8.03191829     -46.24287340
H        8.51011500       7.90225000       9.28330900      -0.74984542       6.35656126      37.89826177
C       10.01463800       8.39604000      10.55319600      54.63962626      14.44075113      25.63855466
H       10.08077600       9.04584200      11.46228000      -1.95156335      -8.33142226      -9.32587406
C       10.88413500       7.09804000      10.69653800     -61.60794637      29.25869668      16.91354905
C       10.57854500       9.15041600       9.31318300     -21.03649845       5.07991875     -61.48731052
O       10.48615000       8.67846000       8.12935000       8.62475224      13.77440989      61.35423188
H       10.33281700       6.47575000      11.41295000      15.37502721      -3.24306611       4.09396361
H       10.71453500       6.74687000       9.72821760       5.72549830     -34.22171242     -40.19769009
H       11.89994500       7.30768000      10.85491000      35.74210334       1.44714434      13.52970161
N       11.02482500      10.41483200       9.56062900       8.71919897     -18.22466402      43.50095563
H       10.85106500      10.75974400      10.51836300       2.24350685     -10.15608097     -10.55203437
C       11.57230500      11.45515000       8.72120000     -35.77326957     -11.08325872     -19.27803541
H       11.20173500      11.21816000       7.68107000       9.14986185       8.35929412      13.77666145
C       10.93494500      12.74230000       9.30208200      28.22156018      -8.52707039      -1.38629315
C       13.11765500      11.56582000       8.64054000     -41.34017558      28.75517829       6.30825952
O       13.57798500      12.56091000       8.12406000      15.00612799      24.80358394     -28.50572989
H       11.29109500      13.52425000       8.68126000      -0.99547329      26.83851401     -23.45265202
H        9.81287700      12.73271000       9.35271000      24.45672624      -2.88309016       9.13193237
H       11.58726500      12.94749000      10.19424700     -30.85090029      -2.74185852       5.20568577
N       13.83518500      10.63133500       9.22708600      31.51866357     -17.20601396       1.85139294
H       13.30132500       9.95957356       9.68624400     -21.47519581     -41.39101328      19.72562048
C       15.19195500      10.33628700       8.78990900     -24.51040801      22.07908608       8.70903143
H       15.15525500       9.69640000       7.95752000      -0.70324064     -41.36174309     -23.71703177
H       15.45558500      11.24415000       8.28736000      25.72660224      23.87049289       6.73348312
H       15.81999500       9.96492660       9.58568600       9.21140035       3.76087594       5.16879585
42
Lattice="20.0 0.0 0.0 0.0 20.0 0.0 0.0 0.0 20.0" Properties=species:S:1:pos:R:3:dft_forces:R:3 dft_energy=15.573897556518205 energy=-620657.4687553475 pbc="T T T"
H        8.79434700      10.99007700       6.77597500       4.28022631       8.96685797      -1.80957330
H        9.92592600      12.11123000       5.97894500      19.93596295       9.11983324     -40.73273023
H        8.87934100      12.71930000       7.29816500       8.10484491     -18.99137713     -16.74717112
C        9.48366840      11.85475000       6.88702500     -43.66757056      10.04426173      48.82599742
O       10.35568000      12.06764000       9.08684500       1.48819371      30.47311337      44.47007152
C       10.44829400      11.56638000       7.99243500      14.97899085     -42.35349302     -23.74037682
N       11.36070000      10.57269400       7.72011500      12.74414656      12.02210900      31.28651658
H       11.28712000      10.15662620       6.84660500      -4.60527949     -20.10352591     -45.34426667
C       12.49847000      10.04149010       8.54289500       4.18128832      25.76630068     -66.02667875
H       13.05636000       9.35341300       7.83372500     -11.28056588      15.53927209      13.82358856
C       13.42762000      11.18194000       8.99020900      30.15327431     -74.66683636      46.12591114
C       11.99865000       9.13704700       9.58104315     -44.91789360      49.86467446     104.72388640
O       12.12180000       7.94946000       9.60977780       3.50685334     -48.64409562     -16.27920356
H       14.33085000      11.22122000       8.39811500      16.43136116     -15.26209404      -3.82304251
H       13.10741000      12.14575000       8.84455000     -39.54272512      54.11560688       7.92101152
H       13.67185000      10.87712200      10.07600400       2.43741298      28.09191812     -30.79935158
N       11.34561000       9.81267900      10.72778500      21.91187863     -26.94943263     -43.11819158
H       11.44012000      10.82009700      10.83369500      -4.17186735      -1.02219567      -7.77384289
C       10.55293800       9.09070800      11.75579500      13.13093969      26.56109895     -43.77386757
H       11.00221000       8.13910000      11.81170500       0.50796817     -40.43457719      -4.67740029
C       10.87938000       9.82372700      13.04702500      13.41783497     -56.95078635      38.04295369
C        9.04057500       9.06657000      11.24972500      63.14694222      78.65718112       5.68942605
O        8.23617000       8.24881000      11.53521500     -52.00210945     -72.42132681      20.37229026
H       10.74596000       9.16716100      14.02105500      -5.44329574      28.05743380     -41.08894965
H       11.98733000      10.01500670      13.00848500     -23.26660263       9.56854409       2.57250617
H       10.21211500      10.64083500      13.00451500      -6.84593042      39.39424111      19.13298798
N        8.67262500      10.22991600      10.60440500       9.71118591      -7.14458118      14.75869415
H        9.29005400      10.91619300      10.23441900      33.61000097       8.45662047      -4.66739866
C        7.34861000      10.63570500      10.39686500     -90.27424755     -34.96389545     -21.44000048
H        6.63087000       9.94827000      10.97435500      24.16035074      23.33592677       6.35154859
C        7.06316000      12.13550000      10.74132500      16.20182124       3.45939297       4.41919454
C        6.83094000      10.10818010       8.93376400      20.54423782      50.42436318      -6.92955785
O        6.59629000      10.92419800       8.03697500      -7.17668359     -13.60210682      -0.67850200
H        7.44692000      12.21942000      11.79900500      -6.63404742       4.97836185     -16.78580303
H        7.66406000      12.88865000      10.10017400     -21.84978316     -27.49608604      16.76245798
H        5.96443000      12.41637000      10.77990500      25.94725445     -10.74380745      -8.79935427
N        6.86260000       8.76365000       8.81727200     -15.02888053       3.46396718      37.57143105
H        7.09297000       8.32350000       9.69847700       2.28499468      -8.62607947       7.97092490
C        6.59732000       7.88406000       7.73112500      63.90358260       8.52779325     -44.41473071
H        7.47888000       7.11135000       7.81780500     -36.12083829      23.82877991     -20.81098762
H        5.66915000       7.36543000       7.64568500     -25.94832098     -11.07959698      17.29228400
H        6.60490000       8.52224000       6.77462500      12.05469727     -21.26153526      22.14769920
42
Lattice="20.0 0.0 0.0 0.0 20.0 0.0 0.0 0.0 20.0" Properties=species:S:1:pos:R:3:dft_forces:R:3 dft_energy=6.408850119099952 energy=-620666.633802785 pbc="T T T"
H       10.98726500      12.85476000      10.47971200      36.72935016      -0.00282223      15.87297597
H       12.79715500      12.51807000      11.18612000       5.64862554      18.19160174     -13.32741733
H       11.38474500      12.86637000      12.22241500      -2.70082100      19.59325285      22.56921365
C       11.71868500      12.48374000      11.29378000     -36.39363173     -30.53390530     -49.08326700
O       10.87741500      10.71460400      12.56702500     -12.98601077     -23.51948760     -13.19149462
C       11.40892500      11.00163000      11.47491400      15.67436528      17.98623639      50.93795431
N       11.98793500      10.08394000      10.66979400      -7.97700409     -51.15777700      10.32471045
H       12.19488500      10.31659700       9.74514900      12.95745159      23.14312271     -39.43133249
C       11.73947500       8.58971000      10.76869300      -4.21098513      19.38563595      13.82074449
H       12.03237500       8.05414000       9.86088400      15.20343515      13.91981283      -6.70040898
C       12.40871500       7.91310000      11.97729500      37.86863607     -32.14542487     -46.82673669
C       10.22566200       8.38032000      10.64124080      34.65472165     -15.13174096      86.60907447
O        9.70480100       8.26034000       9.57812500     -27.77835971      -1.87260494     -58.24104483
H       13.54957500       7.73338000      11.81563500     -38.55784835       4.26560307      -5.66696977
H       12.42727500       8.53297000      12.82542500     -16.54287229      13.87916637      36.02935412
H       11.91936500       6.90532000      12.05098500      10.50438440      18.06065615      13.61016501
N        9.56937500       8.13184000      11.85365500      12.50311186      -3.00364306     -44.23804304
H        9.89047700       8.60144000      12.66664500      12.97036840      11.72629046      22.06332520
C        8.20950500       7.84277000      11.67011100     -49.93719817     -37.51514222       1.24613989
H        8.12812500       7.09951000      10.83195700       6.15056785      10.20584029      10.93184769
C        7.48065500       7.13951000      12.86399500      29.11068668     -42.13402584     -29.10215448
C        7.40721500       9.01548200      11.07327200      11.07776019      37.61895068      12.15684668
O        6.45042500       8.87743000      10.33393700     -17.93421366     -13.92538246      -6.80448999
H        8.06141500       6.37477000      13.45517500       4.10353864      13.00817079     -21.33583652
H        7.10392500       7.74951000      13.59983500     -22.45059235      47.63575530      38.26170986
H        6.64918500       6.57459000      12.44522500      -7.08678736       0.30413269      -2.51978428
N        7.87979500      10.29206800      11.40352200      34.27515718     -27.07125351      10.46950902
H        8.87132500      10.29600300      11.70059000     -14.50687570       3.96753298       6.32179254
C        7.45798500      11.47320000      10.68090470      16.15382760      11.07347039      10.80945800
H        6.46900500      11.16118000      10.41953400     -22.89687389       6.62896365     -23.36033834
C        7.40803500      12.72323000      11.56301000      -3.03971531     -21.07524886      40.01578830
C        8.39900200      11.78980000       9.49289500     -46.43449243     -75.82377919     -25.29027493
O        9.00786100      12.81043000       9.46297500      45.14838154      52.36686107     -15.50763184
H        6.55282500      12.44754000      12.27948500      25.49303322      22.03630657     -11.19636964
H        8.40773500      12.82802000      12.15637500     -38.34762439       1.89482421     -21.75403290
H        7.17716500      13.62523000      10.95637900       3.93524096      -9.79260918      11.43267607
N        8.32410500      10.77340200       8.53072500      14.23100118       1.96131613       9.81241100
H        7.88627500       9.96525717       8.96258500      -3.34081907      -7.34820454     -12.23446602
C        9.18439100      10.52650000       7.35038500     -16.24329722      82.69350497      -5.18415382
H        9.23982820       9.55321200       7.02068500      -3.15015992     -65.11989533       3.57592862
H        8.67098700      10.99829000       6.40016500      30.34655238       0.21284288      36.87581962
H       10.24585400      10.84318700       7.56884500     -22.22401500       5.41337378     -12.75101972
42
Lattice="20.0 0.0 0.0 0.0 20.0 0.0 0.0 0.0 20.0" Properties=species:S:1:pos:R:3:dft_forces:R:3 dft_energy=2.3137308593140915 energy=-620670.7289220447 pbc="T T T"
H        5.89438000       6.99994000      12.44590000      -7.43071804     -17.59008153     -17.33968512
H        5.67794000       8.50729000      13.25397000      23.31779584      -4.54180939      -4.43738472
H        7.39505000       7.74842000      12.96865000     -17.10931567      11.52703985       0.67741651
C        6.37077000       7.95347000      12.56314000       6.17291747      53.33763600      -5.46437739
O        6.66520000      10.10905600      11.22351000      -0.09713378      12.84605896      12.74153949
C        6.53859000       8.89746900      11.23153000       6.64413200     -45.14731502      26.39638006
N        6.64523000       8.11718000      10.12496000      14.42463475      23.71134363      -4.39116863
H        6.38378000       7.19866000      10.35317800      -4.58552507     -38.45001081      -6.86269857
C        6.46413000       8.57997000       8.74487400     -19.05833122      13.21246962       3.61752311
H        6.26640000       7.71487000       8.10419000       1.28566057      -2.97564084       3.74142963
C        5.21584000       9.50772000       8.75202400      17.32961238      -8.28316792     -39.63195773
C        7.54668000       9.37654600       8.00298000      24.17137150       4.37956721     -45.05583086
O        7.67453000       9.21291700       6.74603000      -4.19747581       9.52396334      61.71981301
H        4.87329000       9.56975200       7.70356000      -0.33827098       9.79884243       6.75684002
H        4.45560000       9.05179100       9.32977860     -24.25740453     -12.85707972      16.33762544
H        5.47122000      10.46167000       9.18951600      -1.57172633      10.87785782      -1.11537086
N        8.22904000      10.31171800       8.74513300      -3.05353273      -7.14212817      24.94116569
H        7.86570000      10.45907600       9.72532100       5.15933933      -6.45475268     -21.48100245
C        8.95751300      11.49271000       8.18419000     -25.97178453     -55.89184534      -9.53813627
H        9.24273300      11.09970000       7.15224000     -12.86703396      18.09774752      13.60909849
C        7.94925000      12.63118000       8.17907000      19.34463398      20.62991534      -1.75183873
C       10.34584300      11.68311000       8.80716700     -13.79443687      25.70230917     -11.67200433
O       10.92465000      12.76252000       8.75442400      -0.11764425      19.18453670      -4.64200351
H        6.91889000      12.35747000       7.85630000      16.11448467      -0.77190235       8.92214687
H        8.00343000      13.27505000       9.08092500      -9.14217102     -16.63009035       2.98160153
H        8.36412000      13.30941000       7.46494000      -0.17336841      20.42336496     -23.55385341
N       10.95338000      10.57776100       9.21682800     -70.87083619     -67.32120333       2.86905943
H       10.36639800       9.66441700       9.24231400      26.02368876      40.85893571       1.78368044
C       12.32172000      10.41996800       9.26649600      38.21703430      18.82108861      48.00441751
H       12.76485000      10.54880900       8.25058000       3.66315854       1.30226281      11.46891423
C       13.06426000      11.35947000      10.37831300     -21.00391018     -34.46523567     -38.87128826
C       12.60079000       9.03738800       9.86223300      17.00467770      11.73132683     -42.79527146
O       11.77520000       8.32379000      10.37326300     -30.97283967     -21.90867905      20.14938649
H       14.07050000      11.05136000      10.23074500      31.10094120       4.55458399       6.95311620
H       12.94004000      12.38515000      10.14385900      -6.34968810      25.84534205      -1.79195193
H       12.75044000      11.07182000      11.37684000      -6.33371392       1.60015515       5.26876481
N       13.87855000       8.70642000       9.63900400      27.54964931     -30.99606622       3.28659219
H       14.44700000       9.43196300       9.17450900      -3.13578553     -21.21366013       7.10791641
C       14.46921000       7.35882000       9.89864900      36.45205361      39.65305123     -22.61886633
H       15.54440000       7.56876000      10.09978100     -11.58383825      -8.69026059      15.70339846
H       13.98466000       6.69059000      10.58481000     -11.13285214       9.09269610      21.81387681
H       14.55507000       6.77424000       8.99831800      -8.82658621      -5.38110547     -23.83695660
42
Lattice="20.0 0.0 0.0 0.0 20.0 0.0 0.0 0.0 20.0" Properties=species:S:1:pos:R:3:dft_forces:R:3 dft_energy=3.53281813475769 energy=-620669.5098347693 pbc="T T T"
H       10.69688600      12.13509000       7.52754000     -11.23975352      24.17694113       5.38084476
H        9.58686500      13.67375000       7.70074000       9.72867692     -11.18127239       3.62817651
H        9.23776500      12.26207000       6.64168000      -8.40133892       1.69645053       6.46326118
C        9.65601100      12.57206000       7.61369000      19.62086401     -21.26343131      -3.73667767
O        8.62450500      10.63332400       8.54215000      -0.23016206     -34.54060346      17.74484619
C        9.00177500      11.76586000       8.73422000     -11.54090468      99.52445757      11.99923796
N        8.68688500      12.55486000       9.92911500       0.03805551     -88.17461496     -74.92813503
H        9.00952500      13.49579000      10.03897300       4.51092756       8.21405709       1.26533734
C        7.85868500      11.87883000      10.90259600      10.51769226     -16.67998003      18.87168931
H        7.81812500      12.67498000      11.61873000     -21.47614383       7.28103715      25.31788609
C        6.40043500      11.36962100      10.44748500      24.81057560      59.13313391       2.91002584
C        8.73920500      10.79527600      11.74815000     -14.69339910      60.36105991      39.74595742
O        9.55557400      11.17467500      12.60863000     -10.73749125      -8.31650276     -35.27271375
H        6.46123500      10.62426300       9.64229700      -5.13488035       5.90441383       2.75773790
H        5.89484500      11.01675000      11.34528400      -2.37492645      -7.66043571       1.40016983
H        5.84643500      12.33886000      10.13733500      14.68735546     -35.99925441       0.88223320
N        8.29302500       9.53327700      11.65220000      -8.75375439     -13.21875027     -60.46024676
H        7.71784500       9.44948000      10.77840300      12.39752587      -7.04887832      20.64259514
C        9.23325500       8.45361000      11.84715000      -5.58481178     -41.44433954      28.12237334
H        9.21508500       8.16125000      12.89762000       0.99219313       4.69397884      10.60069162
C        8.76439500       7.17544000      11.11950200     -27.83713710      -8.35364154     -65.26861635
C       10.74609400       8.74560000      11.61510600       0.06625207     -16.82893805       9.15021736
O       11.60028500       8.32274000      12.43133000     -20.81288366      17.34430673     -29.83781986
H        7.63222500       6.81959000      11.23612200      50.87171125      23.72864504       3.42373548
H        8.95148500       7.23335000       9.95936700     -14.56221650      10.15805996      36.88292979
H        9.40940100       6.32625000      11.29730300       5.55113328      -8.33106676      19.52096615
N       10.98239800       9.34094000      10.42315600      -5.21204937      14.92696812     -24.11034256
H       10.14147000       9.65076000       9.80267300      41.63512905     -14.86534667      29.47069819
C       12.34801500       9.63043400       9.92956900      17.87034065       3.33957479     -34.12785820
H       13.09233500       8.80670000      10.20852500     -27.18442368      17.52289044       2.68707468
C       12.31345500       9.67185300       8.36875000      33.03241833     -18.10272464      13.66799438
C       12.91995500      10.98163600      10.50993600       9.15436495       8.60643171      12.41767134
O       13.07779500      12.09193000       9.92787700     -18.64534896     -52.37965937      10.59871262
H       11.68524500       8.84472000       8.02805000       7.18587940      -9.32457052      -4.62076781
H       11.80227500      10.54842130       8.02694000      -0.60494968      21.63529309      -5.78716716
H       13.39229500       9.61686200       7.93730000     -41.70753426       2.92180502      13.29565858
N       13.22256500      10.81194100      11.84612000      -8.03704946       6.12142801     -51.34726298
H       13.15262500       9.89472400      12.28879000      -9.79687528       2.35248202      -3.35777682
C       13.25214500      11.99619000      12.63560000      12.85862026     -43.12257619      72.94368715
H       14.15356500      11.87552000      13.28942000      -5.21155166      19.95468639      -7.57055134
H       13.24576500      12.86270000      12.02564000       0.27451647      20.70848270     -10.64517757
H       12.40210500      11.89133000      13.35832000       3.97557932      16.52995549     -10.72123267
42
Lattice="20.0 0.0 0.0 0.0 20.0 0.0 0.0 0.0 20.0" Properties=species:S:1:pos:R:3:dft_forces:R:3 dft_energy=16.28829652699642 energy=-620656.7543563771 pbc="T T T"
H        6.49446000      11.81318900      11.68337000      -4.81378517     -12.51342161       0.65728526
H        7.51829000      13.01222500      12.37142000       6.19328810      -2.82650507       5.57906439
H        8.18135000      11.33833300      12.14656000      -7.51941738       3.72758851      -5.03172366
C        7.53663000      12.13232500      11.72096000     -17.93516168      -7.12845295      43.48045464
O        8.39595000      13.76164500      10.32531900      15.04973702      28.87379959     -14.31525667
C        7.96668000      12.61928500      10.42589700      13.93960280      10.18614513     -31.07747765
N        7.89463000      11.73875700       9.40184800     -20.72305854     -48.39393621      -1.52175370
H        7.51617000      10.83408000       9.77770540      14.78559428      16.51857922     -25.45250527
C        8.16562000      11.87093300       7.91677000     -23.87677354      11.68989825      31.68113091
H        7.99032000      10.85853600       7.51158000      -3.57578642       6.94871975      -0.11667797
C        7.20704000      12.93530500       7.29811000      -7.02808107      36.52339229      64.28279156
C        9.64423200      12.05592800       7.65902000      58.55946185      -5.00645887       9.08940172
O       10.21026200      11.57047900       6.68850000     -17.12495804     -10.65690935     -30.58272846
H        6.16303000      12.55117500       7.16891000      21.76268360       2.85365406     -17.20613246
H        7.01884000      13.75339500       8.14188000      12.63654601     -33.73845801     -29.86614203
H        7.71492000      13.55807500       6.55173000     -12.04355801     -13.28274178     -15.30404403
N       10.46069200      12.53983500       8.66333000     -46.19345773      30.18372953      21.85487878
H        9.98408530      13.16836500       9.32756600       5.28526040      -4.53539839       3.12016686
C       11.86879000      12.30513500       8.76655000      26.85012728      60.44970001     -68.97490990
H       12.08464000      11.94930100       7.70789000       5.64863739     -10.61192569      27.55510044
C       12.75853000      13.65763500       8.91360300     -16.02738512      14.59480477      23.25735941
C       12.22340000      11.33951400       9.86048520      87.52510111       5.17992327     -34.58148692
O       13.43302000      11.21151100      10.20386500     -40.53625259       4.92517780       9.32350400
H       12.35497000      14.67629500       8.53001000       2.73325522     -43.83311897       5.41966628
H       12.83126000      13.74182500      10.00503700      -2.42561010      12.33886698       4.94627130
H       13.83697000      13.61923500       8.67067000     -11.57279378     -14.10337366     -13.13544280
N       11.22716000      10.56386800      10.15864900     -34.50967422     -77.80455348      58.12479359
H       10.32905100      10.69296100       9.65656900      10.91716520      -3.40702658      18.55291678
C       11.28174000       9.55193500      11.36149000     -23.30191646     -21.68186469     -62.71713257
H       12.21427000       8.93944500      11.48343000      -5.97519555      16.97588152     -21.56608746
C       11.12468000      10.33702700      12.57452000      18.81101587      72.07494313     -13.77879450
C       10.09720880       8.56467500      11.13136000       2.88862424      17.51115867     -15.38462593
O        8.96931000       8.96504500      10.80365400       6.47589358      -3.93293016       9.59447250
H       12.14689000      10.85754800      12.60577000     -37.92919100       5.93770127      12.31279637
H       10.18947900      10.94681700      12.56722000      21.20939403      10.18530376     -11.30914876
H       10.95742900       9.83763500      13.44827000       3.85593889     -50.24210587      58.56669053
N       10.42783400       7.26434500      11.27215000     -23.71940183     -24.81270865      12.16300883
H       11.37290000       6.99684500      11.42887000      21.07015324       2.98742002       4.99062689
C        9.45199700       6.15639500      11.33035000     -24.97612401      37.98050272      42.26295688
H        9.83399800       5.32370500      10.79907500      -1.12773900     -17.46316503     -32.91225649
H        9.31764800       5.69258500      12.37726000       4.85469233      25.18551846     -19.62904070
H        8.47337000       6.66424500      11.04044000      21.88308245     -27.85728257      -2.35210281
42
Lattice="20.0 0.0 0.0 0.0 20.0 0.0 0.0 0.0 20.0" Properties=species:S:1:pos:R:3:dft_forces:R:3 dft_energy=11.119274298660457 energy=-620661.9233786054 pbc="T T T"
H        5.01690000      11.13244100      11.17519400       2.75631586       3.93486175      -4.68833810
H        4.71399000      12.71044000      10.32000140       0.23611446      -5.00064038     -13.25050902
H        5.61357000      12.72888000      11.77811500      -0.17273324      -7.22673917       4.21968323
C        5.43043000      12.11307000      10.88750700      48.01697881       3.59434396       1.01382937
O        7.75404000      12.91193000      10.46518530      10.49128984       3.51971090      -5.46047864
C        6.92481000      12.06820000      10.17179300     -51.55724994       1.67254851       6.31571335
N        7.04624000      11.08694700       9.22361500     -17.43614640     -17.59422913     -11.64707134
H        6.21132000      10.51676013       9.15879500      -1.91901063      -1.27304002       1.81347204
C        7.85784000      11.00076200       7.96162500      20.53250604      19.13227696      33.16300841
H        7.57391000      10.05285600       7.42239500       5.22222877      20.14547590      12.85755373
C        7.66438000      12.26165000       7.14184500      20.21894763      23.74962004     -26.80059311
C        9.37551400      10.77932900       8.40912500     -14.81984159       3.29036058       6.78027987
O        9.81197100       9.63504300       8.27008500      15.72804704       4.53327719       1.34852631
H        7.74188000      13.23718000       7.69804500      -8.09598090     -22.21548280      -1.30257092
H        8.49031000      12.35074000       6.41126500       3.48996669      -4.37248074       3.17706005
H        6.80743000      12.27265000       6.45439500     -10.25838443      -2.74764146      12.91941220
N       10.05472700      11.84103000       8.97705500      25.30508778     -50.12289206     -22.23989437
H        9.53989600      12.58201000       9.38347500     -26.99339717      23.56048957       8.57185259
C       11.47299000      11.84635000       9.44856500     -30.76024565      21.12419052      30.65430415
H       12.16876000      11.40652400       8.78237500       8.94762497     -17.93101409     -30.17531583
C       11.82281000      13.34905000       9.61527400       8.36638059      -2.49184131       1.06832051
C       11.70448000      11.10928600      10.81638100       3.37859776     -46.82721070     -22.66129033
O       12.25180000      11.66963000      11.72482500       9.79730189      25.02471016      32.44203738
H       11.63836000      13.87330000       8.60075500      -6.46762209      -8.27578520      42.21816282
H       11.36878000      13.68443000      10.61195900       0.04524176       5.68284915     -38.48568015
H       12.90062000      13.47163000       9.81225400      -1.53013185      -5.05933482      -2.42243423
N       11.45755000       9.69350400      10.87381100     -30.70312730      48.59989408     -42.18569306
H       10.77268900       9.50593000      10.10201100      11.69540863     -16.30551119      16.45126963
C       11.28832000       9.10812000      12.19751500     -64.74435996      70.58311139      17.27865617
H       11.26324000      10.08939300      12.88272500      -0.13131651     -43.83667406     -18.10094710
C        9.85751000       8.31728000      12.44914500      73.20581535       6.71300583       2.46977609
C       12.44957000       8.34050000      12.61946500      57.14086484     -87.73805064     -50.78638923
O       12.52627000       7.60448000      13.58873500     -12.70598865      14.18703664      44.29326534
H       10.00472600       8.13420000      13.53731500     -15.52125966     -14.72930545     -14.65867778
H        9.00705000       8.92986000      12.25363500     -13.16281695      21.21768923      -1.72329141
H        9.79293100       7.44237000      11.77113500       4.65881906       0.32039602      15.39173610
N       13.44955000       8.09741000      11.63173500     -54.32061672      41.93671867     -20.67921251
H       13.23086000       8.30661000      10.64940400      -2.88433444      10.34200001      16.20691686
C       14.48775000       7.17591000      11.79114500      31.94373311       0.32360626     -10.49207195
H       15.28601000       7.48134000      11.11186700       5.70960708      -1.59897012      -8.56413806
H       14.92741000       7.31394000      12.74600500       7.91405540      -7.39037968      31.69736579
H       14.28998000       6.12670000      11.58401500     -10.61629844     -10.45083298       3.97213088
42
Lattice="20.0 0.0 0.0 0.0 20.0 0.0 0.0 0.0 20.0" Properties=species:S:1:pos:R:3:dft_forces:R:3 dft_energy=25.782889295951463 energy=-620647.2597636081 pbc="T T T"
H       13.73043000       7.37735500       7.37528500     -11.54333399     -23.98603312     -47.86221415
H       13.27189000       7.38412500       8.97428800      10.30993315      20.00315404       1.01140362
H       14.89432000       7.94920500       8.35485500      30.25779378       5.02238564      20.26836330
C       13.84543000       7.97680500       8.21554500     -32.73533181       6.24422061      17.59885074
O       12.58939000       9.57729100       6.87236500      14.46859929      -1.92966403      24.08924906
C       13.30977000       9.37421800       7.86799500      -5.85232000     -14.57335577     -14.67360914
N       13.76669000      10.33586100       8.71737800       8.25119587      15.38948455       6.84716285
H       14.26208000      10.02238700       9.56631900      -8.40465699       6.02649541     -14.21488480
C       13.33036000      11.78741500       8.69485400      27.11912864     -37.26593084      86.09287628
H       14.00637000      12.28696500       9.44207100     -11.62358408      -6.70405887      -9.70204934
C       13.42134000      12.38640500       7.40684500       3.17894425      46.98090883    -104.53866652
C       11.96836000      11.71074500       9.36689000      -6.39788319      48.13133401      67.51175583
O       11.73479000      11.98184500      10.58586100      31.24539611     -19.64468307     -15.51450500
H       12.72075000      11.84288500       6.72496500       9.52345377      10.51382907       1.33852467
H       13.18209000      13.52153500       7.29571500       6.21615914     -39.22833719      16.32411613
H       14.42393000      12.25172500       6.87811500     -20.00078398       1.52658861      20.14713494
N       10.96248100      11.42237500       8.60476500     -48.56138067      -9.36366460     -96.70112838
H       11.10677800      11.59852500       7.52011500      -7.54423187     -23.86468626      61.34546267
C        9.51655100      11.41066500       9.07153800      33.13160517      -7.14734229       3.44716348
H        9.52223600      12.15987500       9.87656000      -7.29333774      -6.32349898       3.32247484
C        8.67742000      11.78050500       7.87993500      32.86912147      57.05566133       9.24153561
C        9.15023000       9.95366600       9.53037400      17.94298287      44.41781179      -4.17204511
O        8.61738000       9.22988200       8.71315500     -14.92720513     -30.39916762       8.78040567
H        9.58478800      12.05815500       7.19189500     -63.18355959      21.16981410       3.42917476
H        8.28222000      10.91937500       7.46268500     -23.66726059     -42.15369730     -21.11731736
H        7.81773000      12.47673500       8.21290500      35.82280374     -10.16020487     -25.77838796
N        9.50223100       9.71686800      10.82010500      17.03074832      -9.86148301      -0.35195094
H       10.34499110      10.26702600      11.11042500     -21.06778319      -2.93465073       1.11228505
C        9.34785000       8.37469500      11.39037500       8.30499614     -19.57334438     -23.32324697
H        9.29793000       7.59162500      10.54800800      -5.04676167      27.87790206      17.46909017
C       10.63044700       8.01093500      12.13296500      28.11016755      39.19657844     -10.06771343
C        7.98211000       8.29608500      12.14944500     -27.95445487     -75.13207835     -45.95218603
O        7.67004000       8.55985500      13.27503500       8.18125552      27.99604935      34.86731567
H       10.64205200       7.00618500      12.55391500      -4.35513193       1.51331630       9.58860661
H       11.51155000       8.05245500      11.37453500     -29.80843117      -1.25463654      21.91128611
H       10.82726200       8.86334200      12.85876500       0.20744508     -29.01932103      -3.64418624
N        7.10124000       7.48317500      11.33331500      33.74047255      52.99859949     -36.95355746
H        7.41283000       7.60160500      10.34298600     -17.32119868      -7.11571390      15.79168305
C        5.67660000       7.25781500      11.60222500      27.99095373     -39.16683424       4.31928483
H        5.11685000       6.86900500      10.72161500      15.07533363       1.34767309       8.24017511
H        5.81740000       6.47846500      12.37005500     -27.88394570      -3.11149245       0.79705220
H        5.10568000       8.05500500      12.02062500      -3.80582406      26.50208456       9.67516106
42
Lattice="20.0 0.0 0.0 0.0 20.0 0.0 0.0 0.0 20.0" Properties=species:S:1:pos:R:3:dft_forces:R:3 dft_energy=-3.5904309548204765 energy=-620676.6330838589 pbc="T T T"
H        9.75591800       6.18686500      12.65174500       2.64466253     -10.51954090       6.59265439
H        9.03171000       6.56394500      11.08652800     -15.53358395     -10.16906887     -12.67399290
H        8.63367000       7.54909500      12.55800500       6.53332004      -4.55909895      -9.79782330
C        9.40806400       6.97706500      11.99667500      -0.10032803      12.07816082      17.04496865
O       10.77378300       8.05013500      10.38848400      15.91030435       5.19393030      -6.76933021
C       10.54198700       7.86422500      11.57635500      -6.13701113      27.01543869      40.63733548
N       11.16338000       8.56729500      12.64237500      -7.78465035     -56.08216083     -48.62110608
H       10.91825200       8.13716500      13.53252500      14.92862716      12.34182955       4.16403432
C       12.35926000       9.34559400      12.32305500     -24.59987762      -7.17978836     -44.84193330
H       12.66273000       9.75927200      13.21830500      26.01989667      19.12990691      51.25589732
C       13.51808000       8.57492500      11.57913500      16.97031189       9.66722137       6.62472125
C       11.71479000      10.55775400      11.57897500     -72.45711466      15.08730241       1.34280262
O       10.53336300      10.95580500      11.83974500      53.67797604     -16.20679835      14.25304270
H       14.59092000       8.96220100      11.75465500     -36.61238790       0.85862862      -1.45793994
H       13.56677000       7.55060500      11.99551500      -4.99440713       3.70073577      -8.89342179
H       13.34718000       8.55599500      10.47549700       0.14858829      -6.41434323      16.82893805
N       12.34134000      11.12943500      10.56032800      12.20389229      25.25863469     -42.01516753
H       13.11974000      10.66426200      10.12750860      11.96167257      -4.30765971      -1.75034560
C       11.65050000      12.21349500       9.71988700      28.06691403     -17.20838401      39.29588379
H       11.44018000      12.95634500      10.51647400     -10.99015107      -1.63914257     -12.88362435
C       12.64662000      12.87358500       8.73615500     -10.98068270     -13.06659267      33.44670411
C       10.38263600      11.76572500       9.08795500     -55.61691884       6.57023366     -21.82786014
O        9.68494500      12.67554500       8.54727500      21.16377045     -29.20714796      12.69366436
H       13.43664000      13.08474500       9.46671100      14.75099146       9.20878144     -14.46990282
H       12.98333000      12.15648500       7.96766500      -2.54964698      11.35286444      -1.42672630
H       12.17496000      13.81313500       8.39631500       7.90871093     -11.19710436      -7.44535313
N        9.98771900      10.45117300       9.09594500     -26.64440642      -0.51297729      -8.08012523
H       10.42405100       9.63229300       9.57369000       4.55531871      23.40548791      -3.00769585
C        8.76759000       9.96971500       8.26375500      56.32923917      18.95606330      27.42510287
H        8.34202000      10.90372300       7.87692500      -2.22010255       0.29288204      -4.81412882
C        9.46078400       9.12778300       7.20334500     -30.47346888     -29.04124404       8.31920463
C        7.67342000       9.32261400       9.12989500     -39.95653690     -10.23053628     -29.29614356
O        6.89834000       8.45964500       8.62553500      33.91265712      26.52803667      25.98446433
H        9.96204400       8.28143500       7.74811500     -13.21104759       5.12119328     -15.45110600
H        8.68253000       8.78578500       6.46747500      20.92617234      -1.59312793       8.27533489
H       10.26427100       9.69992500       6.76337500       1.59249987       8.89919288     -11.95231085
N        7.42658000       9.96716560      10.31415100      23.21908301      -9.66110663     -25.06168303
H        8.05874000      10.76829400      10.49282100     -12.26503974     -14.15219682       5.64930100
C        6.15487000       9.83126400      11.00216600      26.30691045     -29.75640844       1.18148595
H        5.89980000       8.75557500      11.25896500       2.58050511      25.31930812     -15.78860198
H        6.34611000      10.33429600      11.90294500      -3.04162320      16.69799246      41.15009709
H        5.40908000      10.38965200      10.48302300     -26.14313958       0.02077745     -13.83923093
